!Neo-Hartee-Fock geometry optimization test on H2
!Electronic basis set: 6-31G(p)
!Nuclear basis set: DZSPDN
!Results:
!
!FINAL RHF ENERGY IS       -1.0481587102 AFTER   2 ITERATIONS
!FINAL RHF ENERGY IS       -1.0481611678 AFTER  12 ITERATIONS
!FINAL RHF ENERGY IS       -1.0481625099 AFTER   9 ITERATIONS
!                                -----------------------
!                                GRADIENT (HARTREE/BOHR)
!                                -----------------------
!       ATOM     ZNUC       DE/DX         DE/DY         DE/DZ
!--------------------------------------------------------------
! 1  H            0.0     0.0000055     0.0000000     0.0000000
! 2  H            0.0    -0.0000055     0.0000000     0.0000000
!
!         MAXIMUM GRADIENT =  0.0000055    RMS GRADIENT = 0.0000032
!
!     ***** EQUILIBRIUM GEOMETRY LOCATED *****
!COORDINATES OF ALL ATOMS ARE (ANGS)
!  ATOM   CHARGE       X              Y              Z
!------------------------------------------------------------
!H           0.0   0.3671656032   0.0000000000   0.0000000000
!H           0.0  -0.3671656032   0.0000000000   0.0000000000
!
 $CONTRL SCFTYP=RHF RUNTYP=OPTIMIZE $END
 $SYSTEM TIMLIM=5 MEMORY=2000000  $END
 $SCF SOSCF=.F. DIIS=.T. ETHRSH=1.5  $END
 $NEO NEOSCF=RONHF BASNUC=DZSPDN NUNIQN=2 IUNIQN(1)=1,2 NUMULT=3 $END
 $BASIS GBASIS=N31 NGAUSS=6 NPFUNC=1 $END
 $GUESS GUESS=MOREAD NORB=10 $END
 $GESNMO GUESS=MOREAD NORB=40 $END
 $DATA
H2 NEO-HF OPTIMIZATION TEST 
C1
 H           1.0    .3649993801    .0000000000    .0000000000
 H           1.0   -.3649993801    .0000000000    .0000000000
 $END
--- CLOSED SHELL ORBITALS --- GENERATED AT Mon Apr 30 00:42:49 2007
H2 NEO GRADIENT TEST                                                            
E(RHF)=       -1.0481587102, E(NUC)=    0.0000000000,   11 ITERS
 $VEC   
 1  1 2.91607546E-01 2.99656686E-01-1.05025591E-02 0.00000000E+00 3.55554278E-11
 1  2 2.91607546E-01 2.99656686E-01 1.05025591E-02 0.00000000E+00-3.55554164E-11
 2  1-1.06656196E-01-1.74737824E+00-8.07700083E-03 0.00000000E+00-2.17934261E-11
 2  2 1.06656196E-01 1.74737824E+00-8.07700083E-03 0.00000000E+00-2.17934261E-11
 3  1 7.59259554E-01-6.66800593E-01-2.78104517E-02 0.00000000E+00 4.68529037E-11
 3  2 7.59259554E-01-6.66800593E-01 2.78104517E-02 0.00000000E+00-4.68528939E-11
 4  1 8.26811451E-01-1.40136208E+00 3.40599304E-01 0.00000000E+00 1.42276843E-10
 4  2-8.26811451E-01 1.40136208E+00 3.40599304E-01 0.00000000E+00 1.42276843E-10
 5  1-1.39597184E-10 2.69552819E-10-1.39331397E-10-8.25804970E-05 6.08330718E-01
 5  2 1.39597358E-10-2.69552895E-10-1.39331790E-10-8.25804970E-05 6.08330718E-01
 6  1 0.00000000E+00 0.00000000E+00 0.00000000E+00 6.08330718E-01 8.25804970E-05
 6  2 0.00000000E+00 0.00000000E+00 0.00000000E+00 6.08330718E-01 8.25804970E-05
 7  1-3.77672531E-01 1.83928534E-01-6.52025147E-01 0.00000000E+00-1.77630267E-10
 7  2-3.77672531E-01 1.83928534E-01 6.52025147E-01 0.00000000E+00 1.77630732E-10
 8  1 1.28761615E-10-6.06721211E-11 1.30032085E-10-5.34709976E-07-8.77807419E-01
 8  2 1.28761615E-10-6.06721211E-11-1.30032085E-10 5.34709976E-07 8.77807419E-01
 9  1 0.00000000E+00 0.00000000E+00 0.00000000E+00 8.77807419E-01-5.34709976E-07
 9  2 0.00000000E+00 0.00000000E+00 0.00000000E+00-8.77807419E-01 5.34709976E-07
10  1-1.55118290E+00-1.18521694E-01 1.59921542E+00 0.00000000E+00 2.25887327E-11
10  2 1.55118290E+00 1.18521694E-01 1.59921542E+00 0.00000000E+00 2.25887327E-11
 $END   
--- NUC-HF ORBITALS --- GENERATED AT Mon Apr 30 00:42:49 2007
H2 NEO GRADIENT TEST                                                            
E(RHF)=       -1.0481587102, E(NUC)=    0.0000000000,   11 ITERS
 $VECPRO
 1  1-3.74506384E-01-3.32889562E-01-9.21877280E-02 0.00000000E+00-2.54759264E-10
 1  2-4.99885140E-02 0.00000000E+00 0.00000000E+00 8.90398901E-03-3.09164437E-02
 1  3-3.09164433E-02 0.00000000E+00-1.88284033E-10 0.00000000E+00-3.86034027E-03
 1  4-1.27297412E-03-1.27297460E-03 0.00000000E+00 2.48495227E-10 0.00000000E+00
 1  5 3.30128577E-01 2.93440511E-01-8.12634739E-02 0.00000000E+00-4.89693829E-11
 1  6-4.40648738E-02 0.00000000E+00-2.05446831E-11-7.84861952E-03 2.72530742E-02
 1  7 2.72530737E-02 0.00000000E+00-9.62168068E-11 0.00000000E+00 3.40286680E-03
 1  8 1.12212075E-03 1.12212122E-03 0.00000000E+00 1.33108491E-10 0.00000000E+00
 2  1 3.30117698E-01 2.93454856E-01 8.12634907E-02 0.00000000E+00 2.43610441E-10
 2  2 4.40648556E-02 0.00000000E+00-1.86438572E-11-7.85080502E-03 2.72510222E-02
 2  3 2.72510219E-02 0.00000000E+00 1.48747874E-10 0.00000000E+00 3.40306932E-03
 2  4 1.12217229E-03 1.12217273E-03 0.00000000E+00-2.04335273E-10 0.00000000E+00
 2  5 3.74496821E-01 3.32902173E-01-9.21877426E-02 0.00000000E+00-7.37302609E-11
 2  6-4.99884982E-02 0.00000000E+00 0.00000000E+00-8.90591015E-03 3.09146401E-02
 2  7 3.09146395E-02 0.00000000E+00-1.30839531E-10 0.00000000E+00 3.86051817E-03
 2  8 1.27301936E-03 1.27301990E-03 0.00000000E+00 1.72965314E-10 0.00000000E+00
 3  1-8.74362016E+01 1.15416556E+02 1.15767813E-01-1.32981642E-11 2.97732753E-10
 3  2-1.44281056E-01 1.52197604E-11-3.70494453E-10-1.73416158E+01-1.73948614E+01
 3  3-1.73948614E+01 0.00000000E+00-1.17890045E-10 0.00000000E+00 1.34650991E+00
 3  4 1.40765623E+00 1.40765623E+00 0.00000000E+00 1.58111665E-10 0.00000000E+00
 3  5-8.74361217E+01 1.15416450E+02-1.15767707E-01-1.08793917E-11-1.52453703E-10
 3  6 1.44280925E-01 0.00000000E+00 1.85892032E-10-1.73416000E+01-1.73948455E+01
 3  7-1.73948455E+01 0.00000000E+00 0.00000000E+00 0.00000000E+00 1.34650868E+00
 3  8 1.40765494E+00 1.40765494E+00 0.00000000E+00 0.00000000E+00 0.00000000E+00
 4  1 8.74366469E+01-1.15417146E+02-1.15540336E-01-1.03243629E-11-3.01302668E-10
 4  2 1.44029080E-01 1.18068731E-11 3.73151833E-10 1.73407621E+01 1.73956946E+01
 4  3 1.73956946E+01 0.00000000E+00 1.28219623E-10 0.00000000E+00-1.34533210E+00
 4  4-1.40857581E+00-1.40857581E+00 0.00000000E+00-1.72476123E-10 0.00000000E+00
 4  5-8.74367266E+01 1.15417252E+02-1.15540441E-01 1.73898646E-11-1.50147859E-10
 4  6 1.44029211E-01-1.56086046E-11 1.85823915E-10-1.73407779E+01-1.73957105E+01
 4  7-1.73957105E+01 0.00000000E+00 0.00000000E+00 0.00000000E+00 1.34533333E+00
 4  8 1.40857710E+00 1.40857710E+00 0.00000000E+00 1.40942652E-11 0.00000000E+00
 5  1 1.75851263E-07-2.31715883E-07 1.11940313E-08 4.93694246E-02 4.39325117E-01
 5  2-1.34982952E-08-6.02618279E-02-5.36253659E-01 4.89459643E-09 5.28994401E-08
 5  3 4.30318316E-08-1.57722028E-01-1.40352554E+00-3.32424247E-10 3.69623134E-08
 5  4-2.63241507E-08-1.33499701E-08 2.07758344E-01 1.84878514E+00 4.36397591E-10
 5  5-7.89368658E-08 1.04102232E-07 5.37090578E-09 4.93693307E-02 4.39324864E-01
 5  6-6.50747832E-09-6.02617133E-02-5.36253350E-01-1.27755066E-09-2.41149872E-08
 5  7-1.98112565E-08 1.57721728E-01 1.40352474E+00 1.97219113E-10-1.78268252E-08
 5  8 1.22995458E-08 6.64115656E-09-2.07757949E-01-1.84878408E+00-2.59072006E-10
 6  1 2.20370983E-08-2.90385815E-08 1.37090089E-09-4.39325250E-01 4.93693638E-02
 6  2-1.65730236E-09 5.36253822E-01-6.02617537E-02 6.77093265E-10 6.47908481E-09
 6  3 5.47707389E-09 1.40352597E+00-1.57721834E-01 4.24743436E-09 4.54616991E-09
 6  4-3.10103993E-09-1.78524467E-09-1.84878570E+00 2.07758088E-01-5.58612246E-09
 6  5-1.21011883E-08 1.59569181E-08 8.45785786E-10-4.39324731E-01 4.93693915E-02
 6  6-1.02236235E-09 5.36253188E-01-6.02617875E-02-1.05026083E-10-3.62585737E-09
 6  7-3.19233994E-09-1.40352431E+00 1.57721923E-01-2.26214010E-09-2.85393817E-09
 6  8 1.79191619E-09 1.22266826E-09 1.84878352E+00-2.07758204E-01 2.97424960E-09
 7  1 2.38867087E-07-3.14759640E-07 1.58762746E-08-2.76708892E-02 4.41259904E-01
 7  2-1.91549080E-08 3.37762163E-02-5.38619841E-01 3.87629371E-09 7.14468779E-08
 7  3 6.15493424E-08 8.83935203E-02-1.40958666E+00 1.78387678E-10 5.38671729E-08
 7  4-3.52183127E-08-2.22049711E-08-1.16437077E-01 1.85678939E+00-2.32202977E-10
 7  5 1.71241957E-07-2.25739529E-07-1.22634789E-08 2.76708664E-02-4.41260149E-01
 7  6 1.48248101E-08-3.37761885E-02 5.38620141E-01-4.75295879E-10 5.14079659E-08
 7  7 4.70746834E-08 8.83934476E-02-1.40958744E+00 7.31852834E-10 4.29354997E-08
 7  8-2.54918033E-08-1.97945327E-08-1.16436982E-01 1.85679043E+00-9.62700222E-10
 8  1 2.47619541E-08-3.26280131E-08 1.70798650E-09 4.41259762E-01 2.76708524E-02
 8  2-2.06486706E-09-5.38619668E-01-3.37761714E-02 1.47347582E-10 7.58894214E-09
 8  3 6.42903732E-09-1.40958621E+00-8.83934029E-02-4.17264906E-09 5.91895013E-09
 8  4-3.89150809E-09-2.36953314E-09 1.85678880E+00 1.16436923E-01 5.48740079E-09
 8  5-4.41384986E-11 5.41825892E-11 1.02454411E-11-4.41260291E-01-2.76709032E-02
 8  6 0.00000000E+00 5.38620314E-01 3.37762334E-02 1.55604578E-10 2.44942632E-10
 8  7-4.24841670E-10-1.40958790E+00-8.83935650E-02-2.34375300E-09-2.15314554E-10
 8  8-3.32151479E-10 5.48070363E-10 1.85679102E+00 1.16437136E-01 3.08194242E-09
 9  1-6.72055860E+00 8.85613425E+00-4.99162315E-01 2.82342571E-11 1.47724986E-08
 9  2 6.02456913E-01-3.61093854E-11-1.80498330E-08 1.14925462E-01-1.97864272E+00
 9  3-1.97864272E+00-3.39880633E-11-4.56561419E-08 0.00000000E+00-1.81152118E+00
 9  4 9.49422660E-01 9.49422663E-01 4.41585670E-11 6.01332511E-08 0.00000000E+00
 9  5-6.72055795E+00 8.85613338E+00 4.99162266E-01 7.48622215E-11-9.79893056E-09
 9  6-6.02456854E-01-9.48188967E-11 1.19661969E-08 1.14925451E-01-1.97864252E+00
 9  7-1.97864253E+00 3.19450075E-10-3.04430944E-08 0.00000000E+00-1.81152100E+00
 9  8 9.49422566E-01 9.49422572E-01-4.18986409E-10 4.00999601E-08 0.00000000E+00
10  1-6.67742368E+00 8.79919322E+00-4.99786855E-01 4.88244278E-10 8.74806081E-09
10  2 6.03281596E-01-5.95070804E-10-1.06972010E-08 1.23844877E-01-1.96949795E+00
10  3-1.96949795E+00-1.63847929E-09-2.63105689E-08 0.00000000E+00-1.81283078E+00
10  4 9.48102362E-01 9.48102366E-01 2.15803279E-09 3.46493296E-08 0.00000000E+00
10  5 6.67742434E+00-8.79919409E+00-4.99786904E-01-7.80657748E-10 5.64598704E-09
10  6 6.03281655E-01 9.48207064E-10-6.89696906E-09-1.23844889E-01 1.96949814E+00
10  7 1.96949814E+00-2.61301655E-09 1.72659109E-08 0.00000000E+00 1.81283095E+00
10  8-9.48102457E-01-9.48102457E-01 3.44138177E-09-2.27409273E-08 0.00000000E+00
11  1 0.00000000E+00 0.00000000E+00 0.00000000E+00-3.91085132E-10 4.25214354E-11
11  2 0.00000000E+00 4.64605618E-10-4.90717334E-11 0.00000000E+00-1.25363301E-07
11  3 1.25363303E-07 4.32910815E-09-2.94436347E-10-1.46418838E+00 0.00000000E+00
11  4 1.64604259E-07-1.64604260E-07-5.69428346E-09 3.87094820E-10 1.92250555E+00
11  5 0.00000000E+00 0.00000000E+00 0.00000000E+00 3.02818574E-10-1.92110040E-11
11  6 0.00000000E+00-3.62773053E-10 2.18901475E-11 0.00000000E+00-1.25323937E-07
11  7 1.25323933E-07 2.29471015E-09-2.08984401E-10-1.46415325E+00 0.00000000E+00
11  8 1.64552570E-07-1.64552569E-07-3.01878012E-09 2.74694613E-10 1.92245942E+00
12  1-1.26398314E-08 1.67398276E-08-1.01562619E-09 4.44517728E-11 8.49077801E-10
12  2 1.24538419E-09-5.09929129E-11-1.02451988E-09 3.35049764E-10-1.26802383E+00
12  3 1.26802382E+00-2.86119592E-10-5.75231113E-09 1.44694676E-07-3.56197024E-09
12  4 1.66493798E+00-1.66493798E+00 3.76242224E-10 7.56699568E-09-1.89986698E-07
12  5-1.65056567E-08 2.18321954E-08 3.78249958E-10-3.83406995E-11-3.74940735E-10
12  6-4.69221498E-10 4.50102519E-11 4.50902693E-10-2.26340196E-09-1.26799442E+00
12  7 1.26799441E+00-2.52304437E-10-2.52051801E-09 1.44774015E-07-1.08741378E-09
12  8 1.66489936E+00-1.66489936E+00 3.31833934E-10 3.31563558E-09-1.90090872E-07
13  1 1.32986971E-09-1.85459358E-09 2.98120319E-11-1.25507226E-11-8.42995394E-10
13  2-5.74964183E-11 1.52354453E-11 1.01793777E-09 2.64975580E-10 1.26799450E+00
13  3-1.26799450E+00 8.56320396E-11 5.72829295E-09 8.54898406E-08-1.39918644E-11
13  4-1.66490008E+00 1.66490008E+00-1.12650658E-10-7.53538674E-09-1.12249732E-07
13  5-2.06087974E-08 2.72384334E-08 6.84752676E-10 0.00000000E+00-3.67868386E-10
13  6-8.39476390E-10 0.00000000E+00 4.42700222E-10-2.21979782E-09-1.26802392E+00
13  7 1.26802391E+00 0.00000000E+00-2.50240633E-09-8.55339919E-08-2.15975028E-09
13  8 1.66493870E+00-1.66493870E+00 0.00000000E+00 3.29170662E-09 1.12307703E-07
14  1 0.00000000E+00 0.00000000E+00 0.00000000E+00 3.56028046E-10 8.47162248E-11
14  2 0.00000000E+00-4.22614931E-10-1.04131098E-10 0.00000000E+00-7.40904807E-08
14  3 7.40905044E-08-4.21731693E-09-2.22675098E-10 1.46415335E+00 0.00000000E+00
14  4 9.72821753E-08-9.72821809E-08 5.54670346E-09 2.94125013E-10-1.92246026E+00
14  5 0.00000000E+00 0.00000000E+00 0.00000000E+00 3.27350718E-10-1.33035635E-10
14  6 0.00000000E+00-3.93207379E-10 1.58256743E-10 0.00000000E+00 7.40204816E-08
14  7-7.40205047E-08 2.37448141E-09-4.21693366E-10-1.46418848E+00 0.00000000E+00
14  8-9.71902651E-08 9.71902705E-08-3.12414943E-09 5.55964588E-10 1.92250638E+00
15  1 4.83252855E+01-6.38176897E+01 1.39964706E+00 5.55606273E-10 2.35932487E-09
15  2-1.82650699E+00-7.49825146E-10-3.09721690E-09 9.70149328E+00 9.03469534E+00
15  3 9.03469534E+00 1.78381739E-10 1.51549344E-09 0.00000000E+00-8.16939597E-01
15  4 4.64800643E-03 4.64800634E-03-2.17806525E-10-1.86779458E-09 0.00000000E+00
15  5 4.83251983E+01-6.38175746E+01-1.39964453E+00-1.44931425E-10-2.45155728E-09
15  6 1.82650370E+00 1.85560353E-10 3.25296030E-09 9.70147577E+00 9.03467904E+00
15  7 9.03467904E+00 4.70043864E-11 1.06773150E-09 0.00000000E+00-8.16938120E-01
15  8 4.64799757E-03 4.64799741E-03-6.71727586E-11-1.32315467E-09 0.00000000E+00
16  1 4.83187330E+01-6.38090409E+01 1.39953285E+00-1.02401056E-09 2.91926279E-09
16  2-1.82636907E+00 1.36844593E-09-3.84523344E-09 9.70116265E+00 9.03337126E+00
16  3 9.03337126E+00-2.92703560E-10 1.69018062E-09 0.00000000E+00-8.18196508E-01
16  4 4.85235750E-03 4.85235740E-03 3.61825607E-10-2.08227747E-09 0.00000000E+00
16  5-4.83188201E+01 6.38091560E+01 1.39953538E+00-1.24962999E-10 2.21943980E-09
16  6-1.82637237E+00 1.67326873E-10-2.94650163E-09-9.70118015E+00-9.03338755E+00
16  7-9.03338755E+00 3.49218224E-11-9.85800055E-10 0.00000000E+00 8.18197982E-01
16  8-4.85236578E-03-4.85236557E-03-4.32383475E-11 1.21795086E-09 0.00000000E+00
17  1 8.78136906E-09-1.16525686E-08-2.87709037E-09-2.12194714E-02 1.50021874E+00
17  2 3.77187036E-09 2.80601350E-02-1.98385434E+00 3.90281986E-10 1.59111250E-09
17  3 3.06452781E-09-5.59272802E-03 3.95406424E-01-3.55819869E-11 1.55103680E-09
17  4 6.17304790E-11-1.74600116E-09 6.89289192E-03-4.87328140E-01 3.82266517E-11
17  5 5.20170574E-08-6.87006153E-08-2.68748169E-09-2.12159910E-02 1.50021028E+00
17  6 3.50252827E-09 2.80555327E-02-1.98384315E+00 1.10381499E-08 9.72977530E-09
17  7 9.08714844E-09 5.59181061E-03-3.95404193E-01 1.63347524E-11-1.60059245E-09
17  8 0.00000000E+00 7.92156251E-10-6.89176122E-03 4.87325390E-01-1.82955818E-11
18  1-9.33373097E-09 1.23307715E-08-3.07606448E-10-1.50021220E+00-2.12132700E-02
18  2 4.06484698E-10 1.98384569E+00 2.80519344E-02-1.89191561E-09-1.72089900E-09
18  3-1.77928886E-09-3.95404701E-01-5.59109337E-03-8.63470965E-10 1.66391215E-10
18  4-2.89128608E-11 3.37903700E-11 4.87326016E-01 6.89087723E-03 1.05979724E-09
18  5 2.63612809E-08-3.48120165E-08-7.68455883E-10-1.50021681E+00-2.12221925E-02
18  6 9.82403435E-10 1.98385179E+00 2.80637333E-02 5.25940972E-09 4.92988023E-09
18  7 4.95590899E-09 3.95405916E-01 5.59344525E-03 3.73073360E-10-4.14195616E-10
18  8 0.00000000E+00-2.98529468E-11-4.87327514E-01-6.89377591E-03-4.58484795E-10
19  1 2.80954095E-09-3.76703527E-09-3.09025307E-09-1.38867725E-02 1.50028606E+00
19  2 4.05241194E-09 1.83635502E-02-1.98394396E+00-8.56800842E-10 4.91882808E-10
19  3 1.96365419E-09-3.66038631E-03 3.95457362E-01-3.89371369E-11 1.70465390E-09
19  4 3.93750487E-11-1.76679504E-09 4.51140402E-03-4.87398807E-01 5.78182668E-11
19  5-3.23897418E-08 4.27718906E-08 2.13314954E-09 1.38957712E-02-1.50029443E+00
19  6-2.78160327E-09-1.83754500E-02 1.98395503E+00-7.06623030E-09-6.07086645E-09
19  7-5.42264231E-09-3.66275808E-03 3.95459568E-01-4.05551439E-11 1.23281123E-09
19  8 1.55284538E-11-7.80460614E-10 4.51432716E-03-4.87401526E-01 5.25694366E-11
20  1-6.82947972E-09 9.01290850E-09-5.63223411E-11-1.50029256E+00-1.38930058E-02
20  2 6.85741247E-11 1.98395256E+00 1.83717930E-02-1.31613463E-09-1.25135946E-09
20  3-1.31256206E-09-3.95459077E-01-3.66202922E-03-8.63413967E-10 6.13757016E-11
20  4-3.28867324E-11 5.95460025E-11 4.87400921E-01 4.51342886E-03 1.05992681E-09
20  5 2.79135176E-08-3.68647974E-08-7.96570643E-10 1.50028792E+00 1.38895379E-02
20  6 1.03099189E-09-1.98394642E+00-1.83672071E-02 5.64855129E-09 5.23326728E-09
20  7 5.16599076E-09-3.95457853E-01-3.66111517E-03-3.75180897E-10-5.28165218E-10
20  8-1.73092826E-11 6.82301639E-11 4.87399412E-01 4.51230232E-03 4.60631661E-10
21  1-1.11626688E+02 1.47566065E+02 5.86191619E-01-2.39139044E-11 1.21507286E-09
21  2-7.68708745E-01 1.94559923E-11-1.59080059E-09-2.10984498E+01-2.12224729E+01
21  3-2.12224729E+01 0.00000000E+00 4.26676275E-10 0.00000000E+00 3.13114590E-01
21  4 4.61230916E-01 4.61230916E-01 0.00000000E+00-4.59043110E-10 0.00000000E+00
21  5-1.11626489E+02 1.47565802E+02-5.86190575E-01-4.65179327E-11-3.81270495E-10
21  6 7.68707376E-01 4.97999851E-11 5.24081877E-10-2.10984123E+01-2.12224351E+01
21  7-2.12224351E+01 0.00000000E+00 1.64630537E-10 0.00000000E+00 3.13114031E-01
21  8 4.61230094E-01 4.61230094E-01 0.00000000E+00-1.93939621E-10 0.00000000E+00
22  1 1.11662760E+02-1.47613793E+02-5.85952518E-01-3.64125459E-11-1.21107229E-09
22  2 7.68426221E-01 3.40750940E-11 1.58296292E-09 2.11059185E+01 2.12295054E+01
22  3 2.12295054E+01 0.00000000E+00-4.13150030E-10 0.00000000E+00-3.14284745E-01
22  4-4.61404710E-01-4.61404710E-01 0.00000000E+00 4.44934886E-10 0.00000000E+00
22  5-1.11662959E+02 1.47614056E+02-5.85953561E-01 4.48384133E-11-3.59134627E-10
22  6 7.68427589E-01-5.39131228E-11 4.99577731E-10-2.11059560E+01-2.12295432E+01
22  7-2.12295432E+01 0.00000000E+00 1.43966505E-10 0.00000000E+00 3.14285303E-01
22  8 4.61405531E-01 4.61405531E-01 0.00000000E+00-1.70428785E-10 0.00000000E+00
23  1-7.46919099E+00 9.83911623E+00-8.58738921E-01 6.08887396E-11-1.88617626E-09
23  2 6.65338728E-01-3.86041033E-11 1.46099442E-09 1.59078312E-01-2.09428553E+00
23  3-2.09428553E+00-2.05283651E-10 5.20484031E-09 0.00000000E+00-9.94398318E-01
23  4 4.96647544E-01 4.96647544E-01 1.37991867E-10-3.43239545E-09 0.00000000E+00
23  5-7.46919125E+00 9.83911656E+00 8.58738950E-01-2.11050590E-10 4.43713137E-10
23  6-6.65338751E-01 1.72460239E-10-3.41101578E-10 1.59078319E-01-2.09428560E+00
23  7-2.09428560E+00-2.93801523E-10 1.75495248E-09 0.00000000E+00-9.94398352E-01
23  8 4.96647561E-01 4.96647562E-01 1.90347499E-10-1.16540037E-09 0.00000000E+00
24  1-7.42260131E+00 9.77727093E+00-8.59992220E-01 7.95544398E-10-2.66488809E-09
24  2 6.66355487E-01-6.13659101E-10 2.05609407E-09 1.68689710E-01-2.08503729E+00
24  3-2.08503729E+00-1.05507799E-09 6.34431275E-09 0.00000000E+00-9.95523916E-01
24  4 4.96303688E-01 4.96303688E-01 6.95048933E-10-4.18409901E-09 0.00000000E+00
24  5 7.42260104E+00-9.77727059E+00-8.59992191E-01-3.25977578E-10-4.46406064E-10
24  6 6.66355464E-01 2.48559923E-10 3.51325561E-10-1.68689705E-01 2.08503721E+00
24  7 2.08503721E+00-4.48201105E-10-1.91613812E-09 0.00000000E+00 9.95523882E-01
24  8-4.96303672E-01-4.96303671E-01 2.95614329E-10 1.27231952E-09 0.00000000E+00
25  1-6.96794935E-10 9.27812628E-10-7.29031621E-11 7.98663506E-01 1.10782705E-01
25  2 4.89436348E-11-6.15625489E-01-8.53934806E-02 4.51597243E-10 9.08845571E-11
25  3-9.52024434E-10-1.51660128E+00-2.10367935E-01-3.70440620E-09-3.90664587E-10
25  4-1.46578189E-10 5.49430893E-10 1.00609966E+00 1.39556197E-01 2.46195936E-09
25  5-1.76091043E-09 2.31581384E-09 0.00000000E+00 7.98663792E-01 1.10782710E-01
25  6 0.00000000E+00-6.15625709E-01-8.53934849E-02-2.40941095E-10-5.91500723E-10
25  7-1.32623152E-10 1.51660183E+00 2.10367945E-01 1.40378923E-09-5.51935990E-11
25  8 1.84130074E-10-1.22275445E-10-1.00610002E+00-1.39556204E-01-9.32234170E-10
26  1 1.08413197E-08-1.43195426E-08 1.56607225E-09 1.10782643E-01-7.98663613E-01
26  2-1.21015639E-09-8.53934332E-02 6.15625571E-01-4.20812254E-09 2.56160259E-09
26  3 7.56449263E-09-2.10367817E-01 1.51660149E+00-6.88084574E-10 4.12367895E-09
26  4-3.95636606E-10-3.71182732E-09 1.39556119E-01-1.00609979E+00 4.59670539E-10
26  5-4.26714564E-09 5.64970624E-09 8.10199860E-10 1.10782772E-01-7.98663683E-01
26  6-6.17942081E-10-8.53935325E-02 6.15625625E-01 1.69620797E-09-8.90514448E-10
26  7-3.10358709E-09 2.10368062E-01-1.51660162E+00 2.77725489E-10-1.64279677E-09
26  8 7.77671021E-11 1.54579106E-09-1.39556281E-01 1.00609988E+00-1.85537409E-10
27  1-7.61763459E-09 1.00404720E-08-7.63901797E-10-7.98696462E-01 1.11675599E-01
27  2 5.87359485E-10 6.15647160E-01-8.60812192E-02 4.94760165E-10-1.82433456E-09
27  3-2.81852379E-09 1.51639136E+00-2.12025371E-01 3.77124528E-09-1.24491498E-09
27  4 2.95103747E-10 9.59995430E-10-1.00599902E+00 1.40661126E-01-2.50731974E-09
27  5 2.36828672E-09-3.11696552E-09-2.48197865E-10 7.98696164E-01-1.11675501E-01
27  6 1.91863711E-10-6.15646930E-01 8.60811441E-02 4.66788087E-11 7.19916348E-10
27  7 5.08415153E-10 1.51639080E+00-2.12025186E-01 1.37372921E-09 2.49144538E-10
27  8-1.95677657E-10-5.67372046E-11-1.00599865E+00 1.40661003E-01-9.11953332E-10
28  1 1.01233224E-08-1.33658144E-08 1.45107286E-09-1.11675569E-01-7.98696342E-01
28  2-1.11886107E-09 8.60811962E-02 6.15647067E-01-3.99779320E-09 2.26996332E-09
28  3 7.25766171E-09 2.12025314E-01 1.51639114E+00 5.01121127E-10 3.89640831E-09
28  4-2.86091375E-10-3.59214534E-09-1.40661088E-01-1.00599887E+00-3.34369238E-10
28  5-4.52261937E-10 5.70928328E-10-1.88732612E-10 1.11675531E-01 7.98696284E-01
28  6 1.38991293E-10-8.60811673E-02-6.15647022E-01-1.37965515E-09-5.59554750E-10
28  7 1.72005412E-09 2.12025243E-01 1.51639103E+00 2.56913034E-10 8.70415444E-10
28  8 3.22906582E-10-1.19043573E-09-1.40661041E-01-1.00599880E+00-1.71772139E-10
29  1 0.00000000E+00 0.00000000E+00 0.00000000E+00-2.03774304E-10 0.00000000E+00
29  2 0.00000000E+00 1.54022572E-10 0.00000000E+00 0.00000000E+00 1.06186954E-07
29  3-1.06186962E-07 4.06779580E-09-3.06419508E-11-1.68478253E+00 0.00000000E+00
29  4-7.14840265E-08 7.14840275E-08-2.73882121E-09 2.05658493E-11 1.13417921E+00
29  5 0.00000000E+00 0.00000000E+00 0.00000000E+00-4.10978905E-11-4.10247581E-11
29  6 0.00000000E+00 3.12970786E-11 3.40124956E-11 0.00000000E+00 1.05865748E-07
29  7-1.05865740E-07 1.59085074E-09 7.98509482E-11-1.68479733E+00 0.00000000E+00
29  8-7.12677893E-08 7.12677883E-08-1.07299210E-09-5.45209991E-11 1.13418917E+00
30  1-4.76744043E-09 6.30714812E-09-2.62576618E-10 0.00000000E+00-2.63200994E-10
30  2 1.95970350E-10 0.00000000E+00 2.02873581E-10-5.16231544E-10-1.45906360E+00
30  3 1.45906360E+00 0.00000000E+00-3.34527958E-09-1.22338271E-07-2.23061146E-10
30  4 9.82227425E-01-9.82227425E-01 0.00000000E+00 2.25994472E-09 8.23569337E-08
30  5-1.94536687E-08 2.57261575E-08 3.79952901E-11-1.62928140E-11 1.12121625E-10
30  6-2.88056560E-11 1.44237888E-11-8.55590362E-11-3.49017627E-09-1.45907817E+00
30  7 1.45907816E+00 1.23554810E-10-1.47914495E-09-1.22519095E-07-4.37564609E-11
30  8 9.82237227E-01-9.82237227E-01-8.36472084E-11 9.99182509E-10 8.24786630E-08
31  1-5.51694522E-09 7.28494285E-09 4.59342668E-10 0.00000000E+00-2.62526096E-10
31  2-3.60723162E-10 0.00000000E+00 2.02183316E-10-1.82892365E-09-1.45908053E+00
31  3 1.45908053E+00-3.17477668E-11-3.32547794E-09 1.50790145E-07 5.32347360E-10
31  4 9.82240095E-01-9.82240096E-01 2.14357141E-11 2.24654170E-09-1.01510591E-07
31  5 2.04701150E-08-2.70628873E-08-1.74307497E-10-3.13665717E-11-1.16575779E-10
31  6 1.31990156E-10 2.66180273E-11 8.90534497E-11 3.49963400E-09 1.45906598E+00
31  7-1.45906597E+00 2.88661145E-10 1.49417795E-09-1.51160946E-07 1.63492760E-10
31  8-9.82230293E-01 9.82230293E-01-1.95241699E-10-1.00931761E-09 1.01760210E-07
32  1 0.00000000E+00 0.00000000E+00 0.00000000E+00-2.34581524E-10 1.02623948E-10
32  2 0.00000000E+00 1.77815493E-10-7.76420792E-11 0.00000000E+00-1.30827150E-07
32  3 1.30827137E-07 4.09246733E-09-1.50370722E-10-1.68480007E+00 0.00000000E+00
32  4 8.80716759E-08-8.80716730E-08-2.75527645E-09 1.00660589E-10 1.13419249E+00
32  5 0.00000000E+00 0.00000000E+00 0.00000000E+00 7.61765492E-11-1.55996995E-10
32  6 0.00000000E+00-5.81865326E-11 1.20990446E-10 0.00000000E+00 1.30670177E-07
32  7-1.30670164E-07-1.55954722E-09 1.41020474E-10 1.68478527E+00 0.00000000E+00
32  8-8.79660035E-08 8.79660006E-08 1.05200413E-09-9.67436875E-11-1.13418253E+00
33  1 4.23610787E-09-5.58082051E-09 4.85584587E-10-1.81413637E+00 1.19034674E-02
33  2-3.53586932E-10 1.33188942E+00-8.73920094E-03 1.00867044E-09 7.35365914E-10
33  3 5.83113194E-10-6.97620416E-01 4.57744101E-03-1.49799295E-09-1.73037462E-10
33  4 2.08987105E-11 1.20148194E-10 5.01722069E-01-3.29205270E-03 1.06520849E-09
33  5-1.18268063E-08 1.55501342E-08 1.74147969E-09-1.81417089E+00 1.19005380E-02
33  6-1.28781243E-09 1.33191476E+00-8.73705029E-03-2.95501631E-09-1.73233628E-09
33  7-1.66629629E-09 6.97633694E-01-4.57631421E-03 6.79649713E-10 6.03637796E-10
33  8-2.77402521E-10-3.20374788E-10-5.01731618E-01 3.29124231E-03-4.81527267E-10
34  1 6.42321120E-08-8.44808944E-08 3.76203578E-09 1.19026873E-02 1.81416536E+00
34  2-2.73321165E-09-8.73862824E-03-1.33191070E+00 1.25284450E-08 9.72099570E-09
34  3 1.24345910E-08 4.57714087E-03 6.97631567E-01-9.81597611E-11-7.11845150E-10
34  4 1.28738897E-09-6.38440739E-10-3.29183685E-03-5.01730089E-01 6.41085285E-11
34  5 6.76768246E-09-8.91390472E-09-2.14759241E-09 1.19013181E-02 1.81414190E+00
34  6 1.55135233E-09-8.73762300E-03-1.33189348E+00 2.51397692E-09 1.16232953E-09
34  7-3.11264365E-11-4.57661430E-03-6.97622541E-01 3.17925023E-11-9.27119353E-10
34  8 4.57692030E-11 8.90703451E-10 3.29145814E-03 5.01723597E-01-2.02408508E-11
35  1-2.84978265E-09 3.75445902E-09-2.31251866E-10-1.81412621E+00 7.39483781E-03
35  2 1.68046192E-10 1.33187872E+00-5.42907494E-03-4.88108287E-10-6.21686079E-10
35  3-4.69258225E-10-6.97793484E-01 2.84438293E-03-1.48262380E-09-1.42159243E-11
35  4 7.03069706E-11-2.73689338E-11 5.01852130E-01-2.04567636E-03 1.05458085E-09
35  5-1.12404183E-08 1.47740065E-08 1.58812515E-09 1.81409171E+00-7.39333791E-03
35  6-1.17141510E-09-1.33185340E+00 5.42797376E-03-2.82840945E-09-1.57914444E-09
35  7-1.62331182E-09-6.97780217E-01 2.84380601E-03-6.91876090E-10 5.81105718E-10
35  8-3.04811680E-10-2.76901634E-10 5.01842589E-01-2.04526144E-03 4.89051500E-10
36  1-6.44086770E-08 8.47225070E-08-3.73895874E-09-7.39554591E-03-1.81409722E+00
36  2 2.71327287E-09 5.42959480E-03 1.33185744E+00-1.26398404E-08-9.73850571E-09
36  3-1.24340971E-08-2.84465513E-03-6.97782333E-01-1.15957384E-10 7.61551844E-10
36  4-1.29671560E-09 6.16294764E-10 2.04587212E-03 5.01844111E-01 7.46896024E-11
36  5 1.23864198E-08-1.63043818E-08-2.87687510E-09 7.39262977E-03 1.81412071E+00
36  6 2.08585437E-09-5.42745386E-03-1.33187468E+00 3.99793003E-09 1.95042022E-09
36  7 7.44895190E-10-2.84353382E-03-6.97791366E-01 6.90808739E-11-1.26227304E-09
36  8 2.00601806E-10 1.05273150E-09 2.04506568E-03 5.01850607E-01-4.60568545E-11
37  1 1.41665457E+01-1.86240423E+01 1.74259000E+00-1.60771830E-09-4.00962180E-09
37  2-1.27109251E+00 1.16682574E-09 2.95202870E-09 3.29896039E+00 2.16659798E+00
37  3 2.16659798E+00-5.85744964E-10 9.64518549E-11 0.00000000E+00-5.45502237E-01
37  4 2.66964303E-01 2.66964303E-01 4.20896932E-10-4.55948952E-11 0.00000000E+00
37  5 1.41665601E+01-1.86240613E+01-1.74259177E+00 2.59485239E-10-2.63597389E-09
37  6 1.27109381E+00-1.93835059E-10 1.94682914E-09 3.29896375E+00 2.16660019E+00
37  7 2.16660019E+00-1.36764495E-10 1.46110041E-09 0.00000000E+00-5.45502794E-01
37  8 2.66964575E-01 2.66964575E-01 1.03075024E-10-1.05260507E-09 0.00000000E+00
38  1-1.41765411E+01 1.86373731E+01-1.74200782E+00-1.92437463E-09 4.85518331E-09
38  2 1.27060977E+00 1.39587122E-09-3.56746727E-09-3.30221409E+00-2.16814132E+00
38  3-2.16814132E+00-6.61271630E-10 2.06757498E-10 0.00000000E+00 5.46578476E-01
38  4-2.67206587E-01-2.67206587E-01 4.78411535E-10-1.72343755E-10 0.00000000E+00
38  5 1.41765267E+01-1.86373541E+01-1.74200604E+00-4.32560617E-10-2.62151021E-09
38  6 1.27060847E+00 3.18045007E-10 1.93441987E-09 3.30221072E+00 2.16813911E+00
38  7 2.16813911E+00 1.46710776E-10 1.51824073E-09 0.00000000E+00-5.46577920E-01
38  8 2.67206315E-01 2.67206315E-01-1.06233014E-10-1.09283114E-09 0.00000000E+00
39  1-1.30929567E+02 1.71281196E+02 2.02740725E-01 0.00000000E+00 3.85461251E-10
39  2-1.28525213E-01 0.00000000E+00-2.42126124E-10-2.34422472E+01-2.34345646E+01
39  3-2.34345646E+01 0.00000000E+00 6.46533688E-11 0.00000000E+00-2.19663559E-02
39  4-2.35501963E-02-2.35501963E-02 0.00000000E+00-4.81839400E-11 0.00000000E+00
39  5-1.30929254E+02 1.71280786E+02-2.02740240E-01-1.01264751E-11-1.55233646E-10
39  6 1.28524906E-01 1.26995980E-11 1.02407769E-10-2.34421912E+01-2.34345087E+01
39  7-2.34345087E+01 0.00000000E+00 1.53604386E-11 0.00000000E+00-2.19663052E-02
39  8-2.35501399E-02-2.35501398E-02 0.00000000E+00-1.16050965E-11 0.00000000E+00
40  1 1.30956961E+02-1.71317363E+02-2.02827622E-01-2.40714000E-11-3.81182891E-10
40  2 1.28623937E-01 1.74426249E-11 2.42104876E-10 2.34481333E+01 2.34395632E+01
40  3 2.34395632E+01 0.00000000E+00-6.18910182E-11 0.00000000E+00 2.11744326E-02
40  4 2.35784517E-02 2.35784517E-02 0.00000000E+00 4.71729340E-11 0.00000000E+00
40  5-1.30957274E+02 1.71317773E+02-2.02828106E-01 0.00000000E+00-1.60295277E-10
40  6 1.28624244E-01 0.00000000E+00 1.04275145E-10-2.34481893E+01-2.34396191E+01
40  7-2.34396191E+01 0.00000000E+00 1.53992353E-11 0.00000000E+00-2.11744849E-02
40  8-2.35785078E-02-2.35785077E-02 0.00000000E+00-1.26494732E-11 0.00000000E+00
 $END
