!Neo-Hartee-Fock geometry optimization test on malonaldehyde
!Electronic basis set: 6-31G(d,p)
!Nuclear basis set: DZSPDN
!Results:
!
!MAXIMUM GRADIENT =  0.0076399    RMS GRADIENT = 0.0021230
!MAXIMUM GRADIENT =  0.0028946    RMS GRADIENT = 0.0009901
!MAXIMUM GRADIENT =  0.0028437    RMS GRADIENT = 0.0006995
!MAXIMUM GRADIENT =  0.0002654    RMS GRADIENT = 0.0000817
!MAXIMUM GRADIENT =  0.0000486    RMS GRADIENT = 0.0000208
!
!FINAL RHF ENERGY IS     -265.5941486987 AFTER   2 ITERATIONS
!FINAL RHF ENERGY IS     -265.5942970869 AFTER   8 ITERATIONS
!FINAL RHF ENERGY IS     -265.5943154580 AFTER   8 ITERATIONS
!FINAL RHF ENERGY IS     -265.5943307201 AFTER   6 ITERATIONS
!FINAL RHF ENERGY IS     -265.5943312945 AFTER   6 ITERATIONS
!
!         MAXIMUM GRADIENT =  0.0000486    RMS GRADIENT = 0.0000208
!
!     ***** EQUILIBRIUM GEOMETRY LOCATED *****
!COORDINATES OF SYMMETRY UNIQUE ATOMS (ANGS)
!  ATOM   CHARGE       X              Y              Z
!------------------------------------------------------------
!O           8.0   0.0000000000  -1.1735870817   1.0110084568
!C           6.0   0.0000000000  -1.1770627197  -0.2443692504
!C           6.0   0.0000000000   0.0000000000  -0.9892138312
!H           1.0   0.0000000000   0.0000000000  -2.0595479621
!H           1.0   0.0000000000  -2.1425141009  -0.7352201706
!H           0.0   0.0000000000   0.0000000000   1.2700023987
!COORDINATES OF ALL ATOMS ARE (ANGS)
!  ATOM   CHARGE       X              Y              Z
!------------------------------------------------------------
!O           8.0   0.0000000000   1.1735870817   1.0110084568
!O           8.0   0.0000000000  -1.1735870817   1.0110084568
!C           6.0   0.0000000000   1.1770627197  -0.2443692504
!C           6.0   0.0000000000  -1.1770627197  -0.2443692504
!C           6.0   0.0000000000   0.0000000000  -0.9892138312
!H           1.0   0.0000000000   0.0000000000  -2.0595479621
!H           1.0   0.0000000000   2.1425141009  -0.7352201706
!H           1.0   0.0000000000  -2.1425141009  -0.7352201706
!H           0.0   0.0000000000   0.0000000000   1.2700023987
!
 $CONTRL SCFTYP=RHF RUNTYP=OPTIMIZE $END
 $SYSTEM TIMLIM=999 MEMORY=3000000  $END
 $SCF SOSCF=.F. DIIS=.T. ETHRSH=1.5 $END
 $NEO NEOSCF=DIAGZN BASNUC=DZSPDN NUNIQN=1 
  IUNIQN(1)=9 NUCST=1 NUMULT=2 $END
 $BASIS GBASIS=N31 NGAUSS=6 NDFUNC=1 NPFUNC=1 $END
 $GUESS GUESS=MOREAD NORB=95  $END
 $GESNMO GUESS=MOREAD NORB=20  $END
 $DATA
MALONALDHYDE NEO-HF OPTIMIZATION TEST 
CNV 2

 O           8.0    .0000000000  -1.1615534247   1.0112994576
 C           6.0    .0000000000  -1.1746768286   -.2441101021
 C           6.0    .0000000000    .0000000000   -.9923279777
 H           1.0    .0000000000    .0000000000  -2.0625661502
 H           1.0    .0000000000  -2.1431746970   -.7286969721
 H           1.0    .0000000000    .0000000000   1.2619880379
 $END
--- CLOSED SHELL ORBITALS --- GENERATED AT Mon Apr 30 01:00:24 2007
MALONALDHYDE NEO GRADIENT TEST                                                  
E(RHF)=     -265.5941486987, E(NUC)=  157.8198517014,   12 ITERS
 $VEC   
 1  1 7.03308029E-01 1.49820727E-02 0.00000000E+00-3.35263400E-04-8.95832478E-04
 1  2 3.12044677E-03 0.00000000E+00 1.64345447E-04 1.31963186E-04-2.89535267E-03
 1  3-2.84911669E-03-2.75684011E-03 0.00000000E+00 0.00000000E+00 2.42217060E-05
 1  4-7.03308029E-01-1.49820727E-02 0.00000000E+00-3.35263400E-04 8.95832478E-04
 1  5-3.12044677E-03 0.00000000E+00 1.64345447E-04-1.31963186E-04 2.89535267E-03
 1  6 2.84911669E-03 2.75684011E-03 0.00000000E+00 0.00000000E+00 2.42217060E-05
 1  7 4.50041282E-06 3.31290059E-04 0.00000000E+00 4.03344206E-06 8.89685498E-05
 1  8 5.88301460E-05 0.00000000E+00-1.58893773E-04-4.10517484E-04-3.62213968E-05
 1  9 1.99761060E-05-3.55911271E-04 0.00000000E+00 0.00000000E+00 1.48800383E-05
 1 10-4.50041282E-06-3.31290059E-04 0.00000000E+00 4.03344206E-06-8.89685498E-05
 1 11-5.88301460E-05 0.00000000E+00-1.58893773E-04 4.10517484E-04 3.62213968E-05
 1 12-1.99761060E-05 3.55911271E-04 0.00000000E+00 0.00000000E+00 1.48800383E-05
 1 13 0.00000000E+00 0.00000000E+00 0.00000000E+00-1.68394497E-05 0.00000000E+00
 1 14 0.00000000E+00 0.00000000E+00-3.43997189E-04 0.00000000E+00 0.00000000E+00
 1 15 0.00000000E+00 0.00000000E+00 0.00000000E+00 0.00000000E+00-8.17570205E-05
 1 16 0.00000000E+00 0.00000000E+00 0.00000000E+00-1.46083560E-05 0.00000000E+00
 1 17-3.55053201E-05-5.38202302E-05 0.00000000E+00 1.73976942E-05-4.70033595E-05
 1 18 3.55053201E-05 5.38202302E-05 0.00000000E+00 1.73976942E-05 4.70033595E-05
 1 19 0.00000000E+00 0.00000000E+00 0.00000000E+00 1.85113741E-04 0.00000000E+00
 2  1 7.03299330E-01 1.49606999E-02 0.00000000E+00-2.91026129E-04-9.11931456E-04
 2  2 3.23385124E-03 0.00000000E+00 1.14690480E-04 2.93626230E-04-2.93186117E-03
 2  3-2.93649214E-03-2.79424906E-03 0.00000000E+00 0.00000000E+00-2.01472459E-07
 2  4 7.03299330E-01 1.49606999E-02 0.00000000E+00 2.91026129E-04-9.11931456E-04
 2  5 3.23385124E-03 0.00000000E+00-1.14690480E-04 2.93626230E-04-2.93186117E-03
 2  6-2.93649214E-03-2.79424906E-03 0.00000000E+00 0.00000000E+00 2.01472459E-07
 2  7-7.70995481E-07 3.27166172E-04 0.00000000E+00 3.31934480E-05 1.02941643E-04
 2  8 3.31082008E-04 0.00000000E+00-4.18530106E-04-1.53166847E-04-5.66457272E-05
 2  9-7.82055381E-07-3.67930019E-04 0.00000000E+00 0.00000000E+00 4.37684804E-06
 2 10-7.70995481E-07 3.27166172E-04 0.00000000E+00-3.31934480E-05 1.02941643E-04
 2 11 3.31082008E-04 0.00000000E+00 4.18530106E-04-1.53166847E-04-5.66457272E-05
 2 12-7.82055381E-07-3.67930019E-04 0.00000000E+00 0.00000000E+00-4.37684804E-06
 2 13 5.32538482E-06 6.25455535E-05 0.00000000E+00 0.00000000E+00-4.82066147E-05
 2 14-8.21368137E-04 0.00000000E+00 0.00000000E+00-3.55175340E-04-1.95479219E-05
 2 15 5.41267208E-05-1.29809167E-04 0.00000000E+00 0.00000000E+00 0.00000000E+00
 2 16 4.25075900E-05-9.33275633E-05 0.00000000E+00 0.00000000E+00 3.18785255E-05
 2 17-1.34192623E-05 6.60476788E-05 0.00000000E+00 1.35220647E-05-4.90667425E-05
 2 18-1.34192623E-05 6.60476788E-05 0.00000000E+00-1.35220647E-05-4.90667425E-05
 2 19 4.19247894E-04-7.97419536E-04 0.00000000E+00 0.00000000E+00-4.49095216E-05
 3  1-1.24456286E-04 5.85156591E-04 0.00000000E+00-1.01950683E-05-1.27060547E-04
 3  2-2.71016608E-03 0.00000000E+00 2.45590350E-04 1.54282891E-03 4.09962127E-04
 3  3 1.40077961E-04-2.17058480E-04 0.00000000E+00 0.00000000E+00 2.90685933E-05
 3  4-1.24456286E-04 5.85156591E-04 0.00000000E+00 1.01950683E-05-1.27060547E-04
 3  5-2.71016608E-03 0.00000000E+00-2.45590350E-04 1.54282891E-03 4.09962127E-04
 3  6 1.40077961E-04-2.17058480E-04 0.00000000E+00 0.00000000E+00-2.90685933E-05
 3  7 7.04083164E-01 1.86549094E-02 0.00000000E+00-3.16996582E-05 7.23262034E-04
 3  8-3.65167271E-03 0.00000000E+00-1.13710735E-03 2.16308166E-03-1.85168367E-03
 3  9-8.13622345E-04-5.40751937E-04 0.00000000E+00 0.00000000E+00 5.37311636E-05
 3 10 7.04083164E-01 1.86549094E-02 0.00000000E+00 3.16996582E-05 7.23262034E-04
 3 11-3.65167271E-03 0.00000000E+00 1.13710735E-03 2.16308166E-03-1.85168367E-03
 3 12-8.13622345E-04-5.40751937E-04 0.00000000E+00 0.00000000E+00-5.37311636E-05
 3 13 6.19304775E-03 2.94943568E-04 0.00000000E+00 0.00000000E+00-4.47542876E-05
 3 14 2.22932632E-03 0.00000000E+00 0.00000000E+00-2.04087439E-03-5.34679012E-05
 3 15-6.00870274E-04-6.00618172E-04 0.00000000E+00 0.00000000E+00 0.00000000E+00
 3 16-2.25055323E-04-1.07471631E-03 0.00000000E+00 0.00000000E+00 1.60754719E-04
 3 17-1.49138228E-04 1.96530657E-03 0.00000000E+00 1.12477727E-04-1.79737811E-04
 3 18-1.49138228E-04 1.96530657E-03 0.00000000E+00-1.12477727E-04-1.79737811E-04
 3 19 4.28721049E-04 8.54555782E-05 0.00000000E+00 0.00000000E+00-2.74239533E-04
 4  1-1.26249307E-04 5.97620336E-04 0.00000000E+00-2.32891313E-05-1.65681366E-04
 4  2-2.26534745E-03 0.00000000E+00 7.20917535E-05 1.41444505E-03 4.84842450E-04
 4  3 7.23509816E-05-1.97993095E-04 0.00000000E+00 0.00000000E+00 6.48434045E-05
 4  4 1.26249307E-04-5.97620336E-04 0.00000000E+00-2.32891313E-05 1.65681366E-04
 4  5 2.26534745E-03 0.00000000E+00 7.20917535E-05-1.41444505E-03-4.84842450E-04
 4  6-7.23509816E-05 1.97993095E-04 0.00000000E+00 0.00000000E+00 6.48434045E-05
 4  7 7.04136278E-01 1.90603268E-02 0.00000000E+00 1.32156994E-05 8.12767316E-04
 4  8-6.72285519E-03 0.00000000E+00 8.79954432E-04 2.34970003E-03-1.75241331E-03
 4  9-1.08581635E-03-6.01570539E-04 0.00000000E+00 0.00000000E+00-6.83817785E-06
 4 10-7.04136278E-01-1.90603268E-02 0.00000000E+00 1.32156994E-05-8.12767316E-04
 4 11 6.72285519E-03 0.00000000E+00 8.79954432E-04-2.34970003E-03 1.75241331E-03
 4 12 1.08581635E-03 6.01570539E-04 0.00000000E+00 0.00000000E+00-6.83817785E-06
 4 13 0.00000000E+00 0.00000000E+00 0.00000000E+00-2.80203009E-04 0.00000000E+00
 4 14 0.00000000E+00 0.00000000E+00 3.49760259E-03 0.00000000E+00 0.00000000E+00
 4 15 0.00000000E+00 0.00000000E+00 0.00000000E+00 0.00000000E+00-8.51835100E-05
 4 16 0.00000000E+00 0.00000000E+00 0.00000000E+00-4.33057453E-05 0.00000000E+00
 4 17-1.29766003E-04 1.33985726E-03 0.00000000E+00 8.45723855E-05-1.79522810E-04
 4 18 1.29766003E-04-1.33985726E-03 0.00000000E+00 8.45723855E-05 1.79522810E-04
 4 19 0.00000000E+00 0.00000000E+00 0.00000000E+00 2.60247497E-04 0.00000000E+00
 5  1 6.38825917E-05 1.96291148E-04 0.00000000E+00-1.52565024E-05-3.86090881E-05
 5  2-1.63828464E-03 0.00000000E+00 2.90736152E-04 3.32202634E-04 1.02590148E-04
 5  3 1.99949706E-04 2.64336980E-04 0.00000000E+00 0.00000000E+00 3.51949937E-05
 5  4 6.38825917E-05 1.96291148E-04 0.00000000E+00 1.52565024E-05-3.86090881E-05
 5  5-1.63828464E-03 0.00000000E+00-2.90736152E-04 3.32202634E-04 1.02590148E-04
 5  6 1.99949706E-04 2.64336980E-04 0.00000000E+00 0.00000000E+00-3.51949937E-05
 5  7-4.85076592E-03-1.93200894E-04 0.00000000E+00 1.23744355E-04 9.28626119E-05
 5  8 5.46615217E-03 0.00000000E+00-2.34482106E-03-1.02992419E-04-8.84116590E-05
 5  9-4.89411239E-04-3.80477292E-04 0.00000000E+00 0.00000000E+00-9.04038718E-05
 5 10-4.85076592E-03-1.93200894E-04 0.00000000E+00-1.23744355E-04 9.28626119E-05
 5 11 5.46615217E-03 0.00000000E+00 2.34482106E-03-1.02992419E-04-8.84116590E-05
 5 12-4.89411239E-04-3.80477292E-04 0.00000000E+00 0.00000000E+00 9.04038718E-05
 5 13 9.95524497E-01 2.84752738E-02 0.00000000E+00 0.00000000E+00 4.15500390E-04
 5 14-1.43399811E-02 0.00000000E+00 0.00000000E+00-3.23842641E-03-2.42673196E-03
 5 15-1.77083693E-03-1.74317978E-03 0.00000000E+00 0.00000000E+00 0.00000000E+00
 5 16-3.80157312E-04 1.02072917E-03 0.00000000E+00 0.00000000E+00-2.29632892E-04
 5 17 2.01598305E-05 2.87546253E-04 0.00000000E+00-9.95787426E-05 3.89555841E-05
 5 18 2.01598305E-05 2.87546253E-04 0.00000000E+00 9.95787426E-05 3.89555841E-05
 5 19 1.03944830E-04 1.85739686E-04 0.00000000E+00 0.00000000E+00-2.94110644E-05
 6  1-1.35434699E-01 2.96082503E-01 0.00000000E+00-3.47467595E-02-7.48424845E-02
 6  2 2.89914284E-01 0.00000000E+00-2.75764423E-02-3.27328198E-02-3.24008954E-03
 6  3 5.14674355E-03 1.03901436E-02 0.00000000E+00 0.00000000E+00 6.83433144E-04
 6  4-1.35434699E-01 2.96082503E-01 0.00000000E+00 3.47467595E-02-7.48424845E-02
 6  5 2.89914284E-01 0.00000000E+00 2.75764423E-02-3.27328198E-02-3.24008954E-03
 6  6 5.14674355E-03 1.03901436E-02 0.00000000E+00 0.00000000E+00-6.83433144E-04
 6  7-7.18322862E-02 1.36523933E-01 0.00000000E+00-1.91835517E-02 1.00392130E-01
 6  8 1.65848909E-02 0.00000000E+00 1.85801982E-02-1.38664605E-02-1.11315428E-02
 6  9-8.83148464E-03 1.97814587E-02 0.00000000E+00 0.00000000E+00-1.57885905E-03
 6 10-7.18322862E-02 1.36523933E-01 0.00000000E+00 1.91835517E-02 1.00392130E-01
 6 11 1.65848909E-02 0.00000000E+00-1.85801982E-02-1.38664605E-02-1.11315428E-02
 6 12-8.83148464E-03 1.97814587E-02 0.00000000E+00 0.00000000E+00 1.57885905E-03
 6 13-2.73459638E-02 4.73421305E-02 0.00000000E+00 0.00000000E+00 3.24695810E-02
 6 14 5.48424805E-02 0.00000000E+00 0.00000000E+00 3.64995717E-02-2.96273677E-03
 6 15 4.30189187E-03 4.08660290E-03 0.00000000E+00 0.00000000E+00 0.00000000E+00
 6 16 6.17859794E-03 9.85817483E-03 0.00000000E+00 0.00000000E+00 5.71682503E-05
 6 17 1.81535281E-02-7.23969801E-03 0.00000000E+00-2.72390416E-03 2.28986483E-03
 6 18 1.81535281E-02-7.23969801E-03 0.00000000E+00 2.72390416E-03 2.28986483E-03
 6 19 7.25277922E-02-6.56990303E-03 0.00000000E+00 0.00000000E+00-5.60096251E-03
 7  1-1.43224702E-01 3.16321740E-01 0.00000000E+00-9.11097972E-03-8.55728671E-02
 7  2 3.08784758E-01 0.00000000E+00-1.02541615E-02-4.06839142E-02-2.26571074E-03
 7  3 3.48846470E-04 1.30042512E-02 0.00000000E+00 0.00000000E+00 1.12676938E-03
 7  4 1.43224702E-01-3.16321740E-01 0.00000000E+00-9.11097972E-03 8.55728671E-02
 7  5-3.08784758E-01 0.00000000E+00-1.02541615E-02 4.06839142E-02 2.26571074E-03
 7  6-3.48846470E-04-1.30042512E-02 0.00000000E+00 0.00000000E+00 1.12676938E-03
 7  7-7.27941497E-02 1.37966546E-01 0.00000000E+00-1.19811397E-06 1.15152375E-01
 7  8 4.59971920E-02 0.00000000E+00 3.41728536E-03-2.08986874E-02-1.16985395E-02
 7  9-1.25923996E-02 2.17397852E-02 0.00000000E+00 0.00000000E+00-4.76826444E-04
 7 10 7.27941497E-02-1.37966546E-01 0.00000000E+00-1.19811397E-06-1.15152375E-01
 7 11-4.59971920E-02 0.00000000E+00 3.41728536E-03 2.08986874E-02 1.16985395E-02
 7 12 1.25923996E-02-2.17397852E-02 0.00000000E+00 0.00000000E+00-4.76826444E-04
 7 13 0.00000000E+00 0.00000000E+00 0.00000000E+00 3.08695459E-02 0.00000000E+00
 7 14 0.00000000E+00 0.00000000E+00-1.38233519E-02 0.00000000E+00 0.00000000E+00
 7 15 0.00000000E+00 0.00000000E+00 0.00000000E+00 0.00000000E+00 7.27492344E-03
 7 16 0.00000000E+00 0.00000000E+00 0.00000000E+00 4.32769608E-04 0.00000000E+00
 7 17 2.21707779E-02-3.59477331E-03 0.00000000E+00-3.24863502E-03 3.04054857E-03
 7 18-2.21707779E-02 3.59477331E-03 0.00000000E+00-3.24863502E-03-3.04054857E-03
 7 19 0.00000000E+00 0.00000000E+00 0.00000000E+00 1.92295859E-02 0.00000000E+00
 8  1 5.27301410E-02-1.20562250E-01 0.00000000E+00 8.70655161E-04-4.48580819E-02
 8  2-1.39238081E-01 0.00000000E+00 6.36606280E-03-2.49632078E-02-1.52925987E-03
 8  3-5.76801634E-03 3.85922283E-03 0.00000000E+00 0.00000000E+00 4.18704485E-03
 8  4 5.27301410E-02-1.20562250E-01 0.00000000E+00-8.70655161E-04-4.48580819E-02
 8  5-1.39238081E-01 0.00000000E+00-6.36606280E-03-2.49632078E-02-1.52925987E-03
 8  6-5.76801634E-03 3.85922283E-03 0.00000000E+00 0.00000000E+00-4.18704485E-03
 8  7-8.62222251E-02 1.77356017E-01 0.00000000E+00-9.91773673E-02-1.16354433E-01
 8  8 1.08626356E-01 0.00000000E+00-1.42805727E-02-2.45297389E-02-6.89838442E-03
 8  9 1.51515578E-02-8.00228046E-03 0.00000000E+00 0.00000000E+00 9.30736057E-03
 8 10-8.62222251E-02 1.77356017E-01 0.00000000E+00 9.91773673E-02-1.16354433E-01
 8 11 1.08626356E-01 0.00000000E+00 1.42805727E-02-2.45297389E-02-6.89838442E-03
 8 12 1.51515578E-02-8.00228046E-03 0.00000000E+00 0.00000000E+00-9.30736057E-03
 8 13-1.66374663E-01 3.08068631E-01 0.00000000E+00 0.00000000E+00 6.56869748E-02
 8 14 2.37202833E-01 0.00000000E+00 0.00000000E+00 1.70338863E-02-1.23286576E-02
 8 15 1.20719693E-02 3.80771347E-03 0.00000000E+00 0.00000000E+00 0.00000000E+00
 8 16 8.89725708E-02 2.50218551E-02 0.00000000E+00 0.00000000E+00 9.09752130E-03
 8 17 4.78884881E-02 1.09265880E-02 0.00000000E+00-4.57377181E-03 9.00299089E-04
 8 18 4.78884881E-02 1.09265880E-02 0.00000000E+00 4.57377181E-03 9.00299089E-04
 8 19-3.76078041E-02-8.06450996E-03 0.00000000E+00 0.00000000E+00-8.14863667E-04
 9  1 5.73766746E-02-1.35094021E-01 0.00000000E+00 2.34998824E-02-1.03123050E-01
 9  2-1.63915265E-01 0.00000000E+00 1.38752340E-02-5.99590621E-02-2.75642413E-03
 9  3-6.00585944E-03 7.27635012E-03 0.00000000E+00 0.00000000E+00 1.70342064E-03
 9  4-5.73766746E-02 1.35094021E-01 0.00000000E+00 2.34998824E-02 1.03123050E-01
 9  5 1.63915265E-01 0.00000000E+00 1.38752340E-02 5.99590621E-02 2.75642413E-03
 9  6 6.00585944E-03-7.27635012E-03 0.00000000E+00 0.00000000E+00 1.70342064E-03
 9  7-1.21121618E-01 2.56137183E-01 0.00000000E+00 1.98630869E-02-1.20707401E-01
 9  8 2.16569160E-01 0.00000000E+00 9.95645064E-03-6.31375672E-02-9.70714214E-03
 9  9 9.55650905E-03-3.76593336E-03 0.00000000E+00 0.00000000E+00 1.96478973E-03
 9 10 1.21121618E-01-2.56137183E-01 0.00000000E+00 1.98630869E-02 1.20707401E-01
 9 11-2.16569160E-01 0.00000000E+00 9.95645064E-03 6.31375672E-02 9.70714214E-03
 9 12-9.55650905E-03 3.76593336E-03 0.00000000E+00 0.00000000E+00 1.96478973E-03
 9 13 0.00000000E+00 0.00000000E+00 0.00000000E+00 2.23912064E-01 0.00000000E+00
 9 14 0.00000000E+00 0.00000000E+00 1.94756309E-02 0.00000000E+00 0.00000000E+00
 9 15 0.00000000E+00 0.00000000E+00 0.00000000E+00 0.00000000E+00 1.68022984E-02
 9 16 0.00000000E+00 0.00000000E+00 0.00000000E+00 3.11151048E-03 0.00000000E+00
 9 17 1.34447092E-01 4.85594433E-02 0.00000000E+00-1.01326403E-02 3.98135128E-03
 9 18-1.34447092E-01-4.85594433E-02 0.00000000E+00-1.01326403E-02-3.98135128E-03
 9 19 0.00000000E+00 0.00000000E+00 0.00000000E+00-1.35570327E-02 0.00000000E+00
10  1 1.08145516E-02-2.02314155E-02 0.00000000E+00 2.15922110E-01-1.65963139E-01
10  2-5.79143079E-02 0.00000000E+00 1.36509988E-01-8.95634677E-02 3.08706494E-03
10  3-1.76618210E-02 1.64800554E-02 0.00000000E+00 0.00000000E+00-5.79198415E-03
10  4 1.08145516E-02-2.02314155E-02 0.00000000E+00-2.15922110E-01-1.65963139E-01
10  5-5.79143079E-02 0.00000000E+00-1.36509988E-01-8.95634677E-02 3.08706494E-03
10  6-1.76618210E-02 1.64800554E-02 0.00000000E+00 0.00000000E+00 5.79198415E-03
10  7-6.20854867E-02 1.33570930E-01 0.00000000E+00 1.87480935E-01 7.25155510E-02
10  8 1.00131423E-01 0.00000000E+00 4.54601668E-02-1.70506651E-02-6.96651851E-03
10  9-6.01904747E-03 8.45610999E-03 0.00000000E+00 0.00000000E+00 6.74400523E-04
10 10-6.20854867E-02 1.33570930E-01 0.00000000E+00-1.87480935E-01 7.25155510E-02
10 11 1.00131423E-01 0.00000000E+00-4.54601668E-02-1.70506651E-02-6.96651851E-03
10 12-6.01904747E-03 8.45610999E-03 0.00000000E+00 0.00000000E+00-6.74400523E-04
10 13 6.16302862E-02-1.13472462E-01 0.00000000E+00 0.00000000E+00-1.79181960E-02
10 14-1.38591552E-01 0.00000000E+00 0.00000000E+00 6.75204294E-03 4.77551428E-03
10 15 1.18824535E-03-3.68297020E-03 0.00000000E+00 0.00000000E+00 0.00000000E+00
10 16-4.26111440E-02-1.26886788E-02 0.00000000E+00 0.00000000E+00-4.14644609E-03
10 17 1.15614785E-01 5.18290358E-02 0.00000000E+00-7.66232051E-03 5.28691255E-03
10 18 1.15614785E-01 5.18290358E-02 0.00000000E+00 7.66232051E-03 5.28691255E-03
10 19-1.42882213E-01-3.57579539E-02 0.00000000E+00 0.00000000E+00 3.71116922E-04
11  1 4.10192998E-02-1.01195744E-01 0.00000000E+00-9.76416591E-02-2.23778476E-01
11  2-1.38136282E-01 0.00000000E+00-6.48549677E-02-1.30472595E-01-7.51569982E-03
11  3-6.81795400E-03 1.08130562E-02 0.00000000E+00 0.00000000E+00 1.35721623E-02
11  4 4.10192998E-02-1.01195744E-01 0.00000000E+00 9.76416591E-02-2.23778476E-01
11  5-1.38136282E-01 0.00000000E+00 6.48549677E-02-1.30472595E-01-7.51569982E-03
11  6-6.81795400E-03 1.08130562E-02 0.00000000E+00 0.00000000E+00-1.35721623E-02
11  7-2.59804951E-02 5.85087971E-02 0.00000000E+00-1.47626344E-01 1.43725335E-01
11  8 5.92692466E-03 0.00000000E+00-5.22592746E-02 2.80704020E-02-4.59667082E-03
11  9-2.61328607E-03 4.52037805E-03 0.00000000E+00 0.00000000E+00-3.37998422E-03
11 10-2.59804951E-02 5.85087971E-02 0.00000000E+00 1.47626344E-01 1.43725335E-01
11 11 5.92692466E-03 0.00000000E+00 5.22592746E-02 2.80704020E-02-4.59667082E-03
11 12-2.61328607E-03 4.52037805E-03 0.00000000E+00 0.00000000E+00 3.37998422E-03
11 13 4.27219555E-02-8.19722449E-02 0.00000000E+00 0.00000000E+00 2.49830753E-01
11 14-1.00197191E-01 0.00000000E+00 0.00000000E+00 1.17123771E-01 1.60164680E-03
11 15 1.54984561E-03-4.16906850E-03 0.00000000E+00 0.00000000E+00 0.00000000E+00
11 16-1.78630866E-01-9.84922079E-02 0.00000000E+00 0.00000000E+00-1.11692968E-02
11 17-7.73732197E-02-4.78864160E-02 0.00000000E+00 4.28555814E-03-1.06734952E-03
11 18-7.73732197E-02-4.78864160E-02 0.00000000E+00-4.28555814E-03-1.06734952E-03
11 19-1.48303797E-02-5.18504118E-02 0.00000000E+00 0.00000000E+00-9.78053306E-03
12  1-4.50678977E-02 9.84457814E-02 0.00000000E+00-7.46122471E-02 3.30772973E-01
12  2 2.06503887E-01 0.00000000E+00-5.63612728E-02 1.95541730E-01 2.07136183E-03
12  3 8.79863024E-03-2.08440349E-02 0.00000000E+00 0.00000000E+00-2.25242776E-03
12  4 4.50678977E-02-9.84457814E-02 0.00000000E+00-7.46122471E-02-3.30772973E-01
12  5-2.06503887E-01 0.00000000E+00-5.63612728E-02-1.95541730E-01-2.07136183E-03
12  6-8.79863024E-03 2.08440349E-02 0.00000000E+00 0.00000000E+00-2.25242776E-03
12  7 7.18497314E-03-1.92091856E-02 0.00000000E+00-9.23992518E-02-2.66646086E-01
12  8 1.85892659E-03 0.00000000E+00-4.46471091E-03-4.75292776E-02 5.18710262E-03
12  9 1.14291828E-02-1.56086633E-02 0.00000000E+00 0.00000000E+00 3.68481111E-03
12 10-7.18497314E-03 1.92091856E-02 0.00000000E+00-9.23992518E-02 2.66646086E-01
12 11-1.85892659E-03 0.00000000E+00-4.46471091E-03 4.75292776E-02-5.18710262E-03
12 12-1.14291828E-02 1.56086633E-02 0.00000000E+00 0.00000000E+00 3.68481111E-03
12 13 0.00000000E+00 0.00000000E+00 0.00000000E+00 2.13096117E-01 0.00000000E+00
12 14 0.00000000E+00 0.00000000E+00 1.01922259E-01 0.00000000E+00 0.00000000E+00
12 15 0.00000000E+00 0.00000000E+00 0.00000000E+00 0.00000000E+00 9.59288295E-03
12 16 0.00000000E+00 0.00000000E+00 0.00000000E+00 2.66669885E-03 0.00000000E+00
12 17 1.45860028E-02 6.44354367E-03 0.00000000E+00-2.30048683E-03-3.04879699E-03
12 18-1.45860028E-02-6.44354367E-03 0.00000000E+00-2.30048683E-03 3.04879699E-03
12 19 0.00000000E+00 0.00000000E+00 0.00000000E+00 1.94332418E-02 0.00000000E+00
13  1-1.38574623E-02 3.50838367E-02 0.00000000E+00 2.29072748E-01 1.28500291E-01
13  2 4.67147092E-02 0.00000000E+00 1.47353662E-01 8.48422514E-02 5.23827771E-03
13  3-9.93261690E-04-5.67260824E-03 0.00000000E+00 0.00000000E+00-1.82434770E-02
13  4 1.38574623E-02-3.50838367E-02 0.00000000E+00 2.29072748E-01-1.28500291E-01
13  5-4.67147092E-02 0.00000000E+00 1.47353662E-01-8.48422514E-02-5.23827771E-03
13  6 9.93261690E-04 5.67260824E-03 0.00000000E+00 0.00000000E+00-1.82434770E-02
13  7 2.15740439E-02-5.22799019E-02 0.00000000E+00 2.95933837E-01-5.08314136E-02
13  8-1.57961732E-02 0.00000000E+00 1.09255912E-01-4.99169706E-03 1.96760937E-03
13  9 1.15121517E-02-8.83975433E-03 0.00000000E+00 0.00000000E+00-4.20371411E-03
13 10-2.15740439E-02 5.22799019E-02 0.00000000E+00 2.95933837E-01 5.08314136E-02
13 11 1.57961732E-02 0.00000000E+00 1.09255912E-01 4.99169706E-03-1.96760937E-03
13 12-1.15121517E-02 8.83975433E-03 0.00000000E+00 0.00000000E+00-4.20371411E-03
13 13 0.00000000E+00 0.00000000E+00 0.00000000E+00-2.09257688E-01 0.00000000E+00
13 14 0.00000000E+00 0.00000000E+00-6.71812053E-02 0.00000000E+00 0.00000000E+00
13 15 0.00000000E+00 0.00000000E+00 0.00000000E+00 0.00000000E+00-2.05436863E-02
13 16 0.00000000E+00 0.00000000E+00 0.00000000E+00-2.46756966E-03 0.00000000E+00
13 17 1.45965694E-01 1.08971114E-01 0.00000000E+00-5.87360074E-03 3.63939699E-03
13 18-1.45965694E-01-1.08971114E-01 0.00000000E+00-5.87360074E-03-3.63939699E-03
13 19 0.00000000E+00 0.00000000E+00 0.00000000E+00-1.45279741E-02 0.00000000E+00
14  1-2.01160294E-02 5.33612700E-02 0.00000000E+00 1.81188270E-01-1.22846014E-01
14  2 3.51983271E-02 0.00000000E+00 1.38990355E-01-6.45007408E-02 3.71469565E-03
14  3-1.27304568E-02 9.80279665E-03 0.00000000E+00 0.00000000E+00 1.43129622E-04
14  4-2.01160294E-02 5.33612700E-02 0.00000000E+00-1.81188270E-01-1.22846014E-01
14  5 3.51983271E-02 0.00000000E+00-1.38990355E-01-6.45007408E-02 3.71469565E-03
14  6-1.27304568E-02 9.80279665E-03 0.00000000E+00 0.00000000E+00-1.43129622E-04
14  7 4.03758339E-02-8.25473526E-02 0.00000000E+00-1.20164427E-01 1.75763190E-01
14  8-9.76215297E-02 0.00000000E+00-6.92935474E-02 7.31324752E-02 7.59483279E-04
14  9-1.83924033E-02 1.95034635E-02 0.00000000E+00 0.00000000E+00 2.11664232E-02
14 10 4.03758339E-02-8.25473526E-02 0.00000000E+00 1.20164427E-01 1.75763190E-01
14 11-9.76215297E-02 0.00000000E+00 6.92935474E-02 7.31324752E-02 7.59483279E-04
14 12-1.83924033E-02 1.95034635E-02 0.00000000E+00 0.00000000E+00-2.11664232E-02
14 13-6.21627237E-02 1.22306263E-01 0.00000000E+00 0.00000000E+00-1.63616692E-01
14 14 1.48901352E-01 0.00000000E+00 0.00000000E+00-1.16725433E-01-2.69700167E-03
14 15-1.38973545E-02 1.79178776E-02 0.00000000E+00 0.00000000E+00 0.00000000E+00
14 16 1.70773406E-01 9.91979065E-02 0.00000000E+00 0.00000000E+00 8.77838229E-03
14 17-1.68695534E-01-1.12943449E-01 0.00000000E+00 8.01916512E-03-2.61330712E-03
14 18-1.68695534E-01-1.12943449E-01 0.00000000E+00-8.01916512E-03-2.61330712E-03
14 19-1.13563543E-01-7.28798401E-02 0.00000000E+00 0.00000000E+00-1.25709761E-03
15  1 0.00000000E+00 0.00000000E+00 3.32479204E-01 0.00000000E+00 0.00000000E+00
15  2 0.00000000E+00 2.42620957E-01 0.00000000E+00 0.00000000E+00 0.00000000E+00
15  3 0.00000000E+00 0.00000000E+00-9.40769082E-03-2.27533633E-02 0.00000000E+00
15  4 0.00000000E+00 0.00000000E+00 3.32479204E-01 0.00000000E+00 0.00000000E+00
15  5 0.00000000E+00 2.42620957E-01 0.00000000E+00 0.00000000E+00 0.00000000E+00
15  6 0.00000000E+00 0.00000000E+00 9.40769082E-03-2.27533633E-02 0.00000000E+00
15  7 0.00000000E+00 0.00000000E+00 2.04407547E-01 0.00000000E+00 0.00000000E+00
15  8 0.00000000E+00 1.13063453E-01 0.00000000E+00 0.00000000E+00 0.00000000E+00
15  9 0.00000000E+00 0.00000000E+00-8.99679180E-03 1.66562837E-02 0.00000000E+00
15 10 0.00000000E+00 0.00000000E+00 2.04407547E-01 0.00000000E+00 0.00000000E+00
15 11 0.00000000E+00 1.13063453E-01 0.00000000E+00 0.00000000E+00 0.00000000E+00
15 12 0.00000000E+00 0.00000000E+00 8.99679180E-03 1.66562837E-02 0.00000000E+00
15 13 0.00000000E+00 0.00000000E+00 1.52428206E-01 0.00000000E+00 0.00000000E+00
15 14 0.00000000E+00 8.90185618E-02 0.00000000E+00 0.00000000E+00 0.00000000E+00
15 15 0.00000000E+00 0.00000000E+00 0.00000000E+00 1.15978822E-02 0.00000000E+00
15 16 0.00000000E+00 0.00000000E+00 3.17116931E-03 0.00000000E+00 0.00000000E+00
15 17 0.00000000E+00 0.00000000E+00 3.25861644E-03 0.00000000E+00 0.00000000E+00
15 18 0.00000000E+00 0.00000000E+00 3.25861644E-03 0.00000000E+00 0.00000000E+00
15 19 0.00000000E+00 0.00000000E+00 1.28287746E-02 0.00000000E+00 0.00000000E+00
16  1-3.08495358E-02 7.92311116E-02 0.00000000E+00 2.50834807E-01 1.96337508E-01
16  2 1.01244711E-01 0.00000000E+00 2.02257810E-01 1.32351317E-01 9.25312683E-03
16  3-5.99682862E-03-3.46208865E-03 0.00000000E+00 0.00000000E+00-9.08261541E-03
16  4-3.08495358E-02 7.92311116E-02 0.00000000E+00-2.50834807E-01 1.96337508E-01
16  5 1.01244711E-01 0.00000000E+00-2.02257810E-01 1.32351317E-01 9.25312683E-03
16  6-5.99682862E-03-3.46208865E-03 0.00000000E+00 0.00000000E+00 9.08261541E-03
16  7 5.86664371E-04 1.56677192E-03 0.00000000E+00-1.33100426E-01-1.21374921E-01
16  8 1.27403359E-03 0.00000000E+00-1.83032642E-02-1.15861795E-02 3.93395118E-03
16  9 1.18842461E-02-1.41493150E-02 0.00000000E+00 0.00000000E+00 2.10143059E-02
16 10 5.86664371E-04 1.56677192E-03 0.00000000E+00 1.33100426E-01-1.21374921E-01
16 11 1.27403359E-03 0.00000000E+00 1.83032642E-02-1.15861795E-02 3.93395118E-03
16 12 1.18842461E-02-1.41493150E-02 0.00000000E+00 0.00000000E+00-2.10143059E-02
16 13-2.56728572E-02 5.30130080E-02 0.00000000E+00 0.00000000E+00 3.05993130E-01
16 14 1.09000834E-01 0.00000000E+00 0.00000000E+00 1.43098362E-01 7.39344337E-05
16 15 1.18174431E-02-1.31179699E-02 0.00000000E+00 0.00000000E+00 0.00000000E+00
16 16-1.85419198E-01-1.66135075E-01 0.00000000E+00 0.00000000E+00-8.71659768E-03
16 17-5.30438203E-02-5.50814325E-02 0.00000000E+00 1.19001213E-03-2.89860356E-03
16 18-5.30438203E-02-5.50814325E-02 0.00000000E+00-1.19001213E-03-2.89860356E-03
16 19-9.01551118E-02-1.33825300E-03 0.00000000E+00 0.00000000E+00 8.35053208E-03
17  1 0.00000000E+00 0.00000000E+00 3.90824205E-01 0.00000000E+00 0.00000000E+00
17  2 0.00000000E+00 2.87700655E-01 0.00000000E+00 0.00000000E+00 0.00000000E+00
17  3 0.00000000E+00 0.00000000E+00-6.82871779E-03-2.58137835E-02 0.00000000E+00
17  4 0.00000000E+00 0.00000000E+00-3.90824205E-01 0.00000000E+00 0.00000000E+00
17  5 0.00000000E+00-2.87700655E-01 0.00000000E+00 0.00000000E+00 0.00000000E+00
17  6 0.00000000E+00 0.00000000E+00-6.82871779E-03 2.58137835E-02 0.00000000E+00
17  7 0.00000000E+00 0.00000000E+00 1.89901391E-01 0.00000000E+00 0.00000000E+00
17  8 0.00000000E+00 1.09710048E-01 0.00000000E+00 0.00000000E+00 0.00000000E+00
17  9 0.00000000E+00 0.00000000E+00-7.54721666E-04 2.37856486E-02 0.00000000E+00
17 10 0.00000000E+00 0.00000000E+00-1.89901391E-01 0.00000000E+00 0.00000000E+00
17 11 0.00000000E+00-1.09710048E-01 0.00000000E+00 0.00000000E+00 0.00000000E+00
17 12 0.00000000E+00 0.00000000E+00-7.54721666E-04-2.37856486E-02 0.00000000E+00
17 13 0.00000000E+00 0.00000000E+00 0.00000000E+00 0.00000000E+00 0.00000000E+00
17 14 0.00000000E+00 0.00000000E+00 0.00000000E+00 0.00000000E+00 0.00000000E+00
17 15 0.00000000E+00 0.00000000E+00 9.53657547E-03 0.00000000E+00 0.00000000E+00
17 16 0.00000000E+00 0.00000000E+00 0.00000000E+00 0.00000000E+00 0.00000000E+00
17 17 0.00000000E+00 0.00000000E+00 3.27182181E-03 0.00000000E+00 0.00000000E+00
17 18 0.00000000E+00 0.00000000E+00-3.27182181E-03 0.00000000E+00 0.00000000E+00
17 19 0.00000000E+00 0.00000000E+00 0.00000000E+00 0.00000000E+00 0.00000000E+00
18  1 7.07585091E-04 7.90689180E-03 0.00000000E+00 4.07611262E-01-5.80339834E-03
18  2-5.99992261E-02 0.00000000E+00 3.34070308E-01 1.47249023E-02 6.77475304E-03
18  3-8.80864422E-03 4.28220834E-03 0.00000000E+00 0.00000000E+00-1.10932913E-02
18  4-7.07585091E-04-7.90689180E-03 0.00000000E+00 4.07611262E-01 5.80339834E-03
18  5 5.99992261E-02 0.00000000E+00 3.34070308E-01-1.47249023E-02-6.77475304E-03
18  6 8.80864422E-03-4.28220834E-03 0.00000000E+00 0.00000000E+00-1.10932913E-02
18  7-6.13519298E-03 1.79722676E-02 0.00000000E+00-1.63021184E-01-8.02722696E-03
18  8 5.61536254E-04 0.00000000E+00-7.02079050E-02 7.40766893E-02 3.22019049E-04
18  9-8.44675053E-03 6.58497379E-03 0.00000000E+00 0.00000000E+00 3.62311697E-02