!  MEPMAP plotting example.
!
!  Generate the molecular electrostatic potential in a
!  plane 2.25 bohrs above the silabenzene molecule.  Since
!  the RHF wavefunction's density matrix is determined
!  solely by the orbitals, we can read in the converged
!  occupied orbitals and generate properties immediately.
!  Although the wavefunction is not evaluated, and the
!  MEP can be quickly evaluated, this run is rather long,
!  since the MEP is evaluated 77x73 times.
!
!  The RHF/3-21G* geometry is taken from K.K.Baldridge and
!  M.S.Gordon, J.Am.Chem.Soc., 110, 4204-4208(1988).
!
 $CONTRL SCFTYP=RHF  RUNTYP=PROP  UNITS=BOHR  NZVAR=30  $END
 $SYSTEM MEMORY=250000 $END
 $ELPOT  IEPOT=1 WHERE=GRID OUTPUT=PUNCH $END
 $GRID   ORIGIN(1)= -9.0, 2.25, -4.0  
           XVEC(1)= -9.0, 2.25, 15.0 
           YVEC(1)=  9.0, 2.25, -4.0
         SIZE=0.25  UNITS=BOHR $END
 $GUESS  GUESS=MOREAD  NORB=25 $END
 $ZMAT  IZMAT(1)=1,1,3,   1,1,2,   1,3,5,   1,2,4,   1,5,6,   1,4,6,
                 1,1,7,   1,2,8,   1,3,9,   1,4,10,  1,5,11,  1,6,12,
                 2,2,1,3,   2,3,5,6,   2,2,4,6,
                 3,2,1,3,5,   3,1,2,4,6,   3,3,5,6,4,
                 2,7,1,3,   2,5,6,12,   2,1,3,9,   2,1,2,8,   2,3,5,11,
                 2,2,4,10,   3,4,2,1,7,   3,3,1,2,8,   3,2,1,3,9,
                 3,1,3,5,11,   3,1,2,4,10,   3,3,5,6,12  $END
 $DATA
SILABENZENE...AT THE RHF/3-21G* GEOMETRY
CNV      2
 
SILICON    14.0        0.0000000000        0.0000000000        2.8558068280
    1         3  N21
    2    D    1
    1      0.395         1.0
 
CARBON      6.0        2.7193926841        0.0000000000        4.7714764966
    1         3  N21
 
CARBON      6.0        2.3313758474        0.0000000000        7.3716824336
    1         3  N21
 
CARBON      6.0        0.0000000000        0.0000000000        8.5839079397
    1         3  N21
 
HYDROGEN    1.0        0.0000000000        0.0000000000        0.0806888385
    1         3  N21
 
HYDROGEN    1.0        4.6327031946        0.0000000000        4.0929567701
    1         3  N21
 
HYDROGEN    1.0        3.9752958814        0.0000000000        8.5687041169
    1         3  N21
 
HYDROGEN    1.0        0.0000000000        0.0000000000       10.6110435315
    1         3  N21
 
 $END
 
 
--- RHF ORBITALS --- GENERATED AT Fri Mar  2 22:59:38 1990
SILABENZENE...AT THE RHF/3-21G* GEOMETRY                                        
E(RHF)=     -479.2016513518, E(NUC)=  255.9449451860,    4 ITERS
 $VEC
 1  1 9.86491751E-01 5.80108634E-02-0.00000000E+00-0.00000000E+00-5.87997592E-04
 1  2-6.06939593E-02-0.00000000E+00-0.00000000E+00 4.51113329E-03-9.99323674E-03
 1  3-0.00000000E+00-0.00000000E+00 9.24854930E-04 3.10452407E-02 2.92220332E-02
 1  4 3.09244249E-02-0.00000000E+00-0.00000000E+00-0.00000000E+00 1.67852944E-04
 1  5 3.92553806E-04 1.57940168E-04-0.00000000E+00 2.35689817E-04-5.03364345E-03
 1  6-8.94381079E-03-0.00000000E+00-5.84333685E-04 1.67852944E-04 3.92553806E-04
 1  7-1.57940168E-04-0.00000000E+00 2.35689817E-04-5.03364345E-03 8.94381079E-03
 1  8-0.00000000E+00-5.84333685E-04-1.90303100E-04-1.07961364E-03-4.03138247E-04
 1  9-0.00000000E+00 4.37309514E-05 8.80110787E-03 9.04622800E-03-0.00000000E+00
 1 10-3.25756591E-03-1.90303100E-04-1.07961364E-03 4.03138247E-04-0.00000000E+00
 1 11 4.37309514E-05 8.80110787E-03-9.04622800E-03-0.00000000E+00-3.25756591E-03
 1 12 1.60788864E-04 7.94660512E-04-0.00000000E+00-0.00000000E+00 2.99223432E-05
 1 13-1.27096518E-02-0.00000000E+00-0.00000000E+00 7.34619211E-03-1.24667720E-03
 1 14 1.36130673E-03-8.45338314E-04-2.42438789E-03-8.45338314E-04-2.42438789E-03
 1 15 7.48501260E-04 2.70074523E-03 7.48501260E-04 2.70074523E-03-1.77567651E-04
 1 16-1.76868984E-03
 2  1 0.00000000E+00 0.00000000E+00 2.66832968E-04 0.00000000E+00 0.00000000E+00
 2  2 0.00000000E+00-2.56971778E-03 0.00000000E+00 0.00000000E+00 0.00000000E+00
 2  3 2.84998741E-03 0.00000000E+00 0.00000000E+00 0.00000000E+00 0.00000000E+00
 2  4 0.00000000E+00 0.00000000E+00-1.25759638E-03 0.00000000E+00 3.12621539E-03
 2  5 2.56485348E-03 3.45556094E-04 0.00000000E+00 1.24621872E-03-1.67745032E-02
 2  6-6.19049323E-03 0.00000000E+00-1.02501045E-02-3.12621539E-03-2.56485348E-03
 2  7 3.45556094E-04 0.00000000E+00-1.24621872E-03 1.67745032E-02-6.19049323E-03
 2  8 0.00000000E+00 1.02501045E-02-6.98018223E-01-7.00760857E-02-1.32137505E-03
 2  9 0.00000000E+00 2.20598748E-04 5.62901932E-02 8.25853440E-03 0.00000000E+00
 2 10-5.03301648E-03 6.98018223E-01 7.00760857E-02-1.32137505E-03 0.00000000E+00
 2 11-2.20598748E-04-5.62901932E-02 8.25853440E-03 0.00000000E+00 5.03301648E-03
 2 12 0.00000000E+00 0.00000000E+00-1.53948046E-03 0.00000000E+00 0.00000000E+00
 2 13 0.00000000E+00 1.49280278E-02 0.00000000E+00 0.00000000E+00 0.00000000E+00
 2 14 0.00000000E+00-3.36982858E-05-1.86618173E-03 3.36982858E-05 1.86618173E-03
 2 15 1.18015099E-03-5.62213525E-03-1.18015099E-03 5.62213525E-03 0.00000000E+00
 2 16 0.00000000E+00
 3  1 2.14979201E-05-1.03061432E-03 0.00000000E+00 0.00000000E+00 3.51946311E-04
 3  2-3.74187675E-03 0.00000000E+00 0.00000000E+00-3.91799187E-03 6.96351837E-03
 3  3 0.00000000E+00 0.00000000E+00 7.86420618E-03-9.02323954E-04-2.58330945E-03
 3  4-1.24301644E-03 0.00000000E+00 0.00000000E+00 0.00000000E+00-1.21572238E-03
 3  5-1.69942667E-03-4.21875285E-04 0.00000000E+00-6.09626972E-04 1.69575965E-02
 3  6 5.73180227E-03 0.00000000E+00 1.08965558E-02-1.21572238E-03-1.69942667E-03
 3  7 4.21875285E-04 0.00000000E+00-6.09626972E-04 1.69575965E-02-5.73180227E-03
 3  8 0.00000000E+00 1.08965558E-02 6.98150018E-01 7.03563636E-02-1.16596137E-04
 3  9 0.00000000E+00-9.13772988E-04-6.57829201E-02-1.27888360E-02 0.00000000E+00
 3 10 9.48494476E-03 6.98150018E-01 7.03563636E-02 1.16596137E-04 0.00000000E+00
 3 11-9.13772988E-04-6.57829201E-02 1.27888360E-02 0.00000000E+00 9.48494476E-03
 3 12-9.01155952E-03-6.13100888E-03 0.00000000E+00 0.00000000E+00 1.62428261E-03
 3 13 4.23197820E-02 0.00000000E+00 0.00000000E+00-2.20433660E-02-9.28623466E-04
 3 14 3.58261335E-03-1.34213557E-04 2.08921929E-03-1.34213557E-04 2.08921929E-03
 3 15-1.54416626E-03 5.44216574E-03-1.54416626E-03 5.44216574E-03-1.97739513E-04
 3 16 5.30682178E-03
 4  1-1.12448574E-05 2.56826250E-04 0.00000000E+00 0.00000000E+00-1.42989278E-04
 4  2 9.57988728E-05 0.00000000E+00 0.00000000E+00 1.65713161E-03 5.31818499E-03
 4  3 0.00000000E+00 0.00000000E+00 7.62407310E-03 1.88994290E-03-2.68051292E-04
 4  4 8.35983556E-04 0.00000000E+00 0.00000000E+00 0.00000000E+00 4.81744514E-03
 4  5 1.41150854E-03-1.41919978E-04 0.00000000E+00-9.92974330E-04-1.15599072E-02
 4  6-6.99197859E-03 0.00000000E+00-1.97057460E-03 4.81744514E-03 1.41150854E-03
 4  7 1.41919978E-04 0.00000000E+00-9.92974330E-04-1.15599072E-02 6.99197859E-03
 4  8 0.00000000E+00-1.97057460E-03 5.72656148E-03-3.28954266E-03-1.59691007E-03
 4  9 0.00000000E+00-2.42469137E-04 3.23715116E-02 2.05120818E-02 0.00000000E+00
 4 10-1.94285161E-03 5.72656148E-03-3.28954266E-03 1.59691007E-03 0.00000000E+00
 4 11-2.42469137E-04 3.23715116E-02-2.05120818E-02 0.00000000E+00-1.94285161E-03
 4 12 9.87191801E-01 9.96154670E-02 0.00000000E+00 0.00000000E+00-1.21581506E-03
 4 13-8.95649624E-02 0.00000000E+00 0.00000000E+00 2.12581833E-02-5.41986661E-04
 4 14 3.65807286E-03-3.90434137E-04-8.34171860E-04-3.90434137E-04-8.34171860E-04
 4 15-3.91176002E-05 4.46359009E-03-3.91176002E-05 4.46359009E-03-2.21146593E-03
 4 16 7.06066584E-03
 5  1 3.74898565E-05-2.44027340E-04-0.00000000E+00-0.00000000E+00-3.99950308E-04
 5  2 3.22697942E-03-0.00000000E+00-0.00000000E+00 6.68357862E-03 2.56565318E-02
 5  3-0.00000000E+00-0.00000000E+00 2.17904542E-02 1.54794252E-04-2.04235919E-03
 5  4 1.49133642E-03-0.00000000E+00-0.00000000E+00-0.00000000E+00 6.98447932E-01
 5  5 7.27105637E-02 1.00761285E-03-0.00000000E+00 5.82470890E-04-6.69620514E-02
 5  6-1.34550638E-02-0.00000000E+00-1.10681187E-02 6.98447932E-01 7.27105637E-02
 5  7-1.00761285E-03-0.00000000E+00 5.82470890E-04-6.69620514E-02 1.34550638E-02
 5  8-0.00000000E+00-1.10681187E-02 9.17723804E-04-1.89842072E-03 1.20804891E-04
 5  9-0.00000000E+00 1.11028313E-03 2.60899315E-02 4.82085590E-03-0.00000000E+00
 5 10-1.53801273E-02 9.17723804E-04-1.89842072E-03-1.20804891E-04-0.00000000E+00
 5 11 1.11028313E-03 2.60899315E-02-4.82085590E-03-0.00000000E+00-1.53801273E-02
 5 12-6.23105211E-03 3.99611432E-04-0.00000000E+00-0.00000000E+00 4.99187935E-04
 5 13-1.12043162E-02-0.00000000E+00-0.00000000E+00 1.01994587E-02-1.08888940E-03
 5 14 7.08252565E-03-1.49858258E-03 4.09948003E-03-1.49858258E-03 4.09948003E-03
 5 15-1.52708632E-04 3.14820021E-03-1.52708632E-04 3.14820021E-03-7.30066648E-04
 5 16-1.46258754E-03
 6  1-0.00000000E+00-0.00000000E+00 1.59708466E-04-0.00000000E+00-0.00000000E+00
 6  2-0.00000000E+00 3.56609825E-03-0.00000000E+00-0.00000000E+00-0.00000000E+00
 6  3 8.45879098E-03-0.00000000E+00-0.00000000E+00-0.00000000E+00-0.00000000E+00
 6  4-0.00000000E+00-0.00000000E+00 9.73707221E-04-0.00000000E+00-6.97925745E-01
 6  5-6.91880083E-02-5.12125318E-04-0.00000000E+00 1.73902051E-05 4.88621543E-02
 6  6 3.01528690E-03-0.00000000E+00 4.81413755E-03 6.97925745E-01 6.91880083E-02
 6  7-5.12125318E-04-0.00000000E+00-1.73902051E-05-4.88621543E-02 3.01528690E-03
 6  8-0.00000000E+00-4.81413755E-03-2.84458630E-03 1.79061510E-03-1.14868058E-04
 6  9-0.00000000E+00-1.26077243E-03-1.31877493E-02 8.58387181E-04-0.00000000E+00
 6 10 1.12193692E-02 2.84458630E-03-1.79061510E-03-1.14868058E-04-0.00000000E+00
 6 11 1.26077243E-03 1.31877493E-02 8.58387181E-04-0.00000000E+00-1.12193692E-02
 6 12-0.00000000E+00-0.00000000E+00-9.19001388E-04-0.00000000E+00-0.00000000E+00
 6 13-0.00000000E+00 4.20851793E-03-0.00000000E+00-0.00000000E+00-0.00000000E+00
 6 14-0.00000000E+00 7.69480042E-04-6.33996817E-03-7.69480042E-04 6.33996817E-03
 6 15 3.17925940E-04-1.48862490E-03-3.17925940E-04 1.48862490E-03-0.00000000E+00
 6 16-0.00000000E+00
 7  1-2.86426457E-01 9.74516567E-01 0.00000000E+00 0.00000000E+00-3.75867514E-03
 7  2 2.37875282E-01 0.00000000E+00 0.00000000E+00-1.93624800E-03 3.89742609E-03
 7  3 0.00000000E+00 0.00000000E+00-6.70682174E-04-7.67676046E-02-7.55634948E-02
 7  4-7.65188533E-02 0.00000000E+00 0.00000000E+00 0.00000000E+00-2.62476853E-04
 7  5 3.19579656E-04 6.42606602E-04 0.00000000E+00-5.86167321E-04 2.36807645E-03
 7  6 2.43022439E-03 0.00000000E+00-2.48503876E-04-2.62476853E-04 3.19579656E-04
 7  7-6.42606602E-04 0.00000000E+00-5.86167321E-04 2.36807645E-03-2.43022439E-03
 7  8 0.00000000E+00-2.48503876E-04 3.60638377E-05 6.78899836E-05-4.89864533E-05
 7  9 0.00000000E+00 2.09074468E-04-1.78779736E-03-1.34674816E-03 0.00000000E+00
 7 10 3.65821216E-04 3.60638377E-05 6.78899836E-05 4.89864533E-05 0.00000000E+00
 7 11 2.09074468E-04-1.78779736E-03 1.34674816E-03 0.00000000E+00 3.65821216E-04
 7 12-9.07726070E-06-8.84605651E-05 0.00000000E+00 0.00000000E+00 6.58883909E-05
 7 13 1.96586586E-03 0.00000000E+00 0.00000000E+00-1.03788972E-03 1.15655740E-03
 7 14-3.54083269E-04 4.80867404E-05 3.32234062E-04 4.80867404E-05 3.32234062E-04
 7 15-1.12663519E-04-1.35989814E-04-1.12663519E-04-1.35989814E-04-7.01747777E-06
 7 16 2.79370455E-04
 8  1-0.00000000E+00-0.00000000E+00-0.00000000E+00 9.75473590E-01-0.00000000E+00
 8  2-0.00000000E+00-0.00000000E+00 8.58580710E-02-0.00000000E+00-0.00000000E+00
 8  3-0.00000000E+00-2.69325751E-02-0.00000000E+00-0.00000000E+00-0.00000000E+00
 8  4-0.00000000E+00-0.00000000E+00-0.00000000E+00-3.86166179E-04-0.00000000E+00
 8  5-0.00000000E+00-0.00000000E+00-4.46863187E-04-0.00000000E+00-0.00000000E+00
 8  6-0.00000000E+00-5.62918343E-04-0.00000000E+00-0.00000000E+00-0.00000000E+00
 8  7-0.00000000E+00-4.46863187E-04-0.00000000E+00-0.00000000E+00-0.00000000E+00
 8  8-5.62918343E-04-0.00000000E+00-0.00000000E+00-0.00000000E+00-0.00000000E+00
 8  9-4.78056732E-04-0.00000000E+00-0.00000000E+00-0.00000000E+00 2.69910777E-03
 8 10-0.00000000E+00-0.00000000E+00-0.00000000E+00-0.00000000E+00-4.78056732E-04
 8 11-0.00000000E+00-0.00000000E+00-0.00000000E+00 2.69910777E-03-0.00000000E+00
 8 12-0.00000000E+00-0.00000000E+00-0.00000000E+00-8.82199002E-05-0.00000000E+00
 8 13-0.00000000E+00-0.00000000E+00-6.58310789E-04-0.00000000E+00-0.00000000E+00
 8 14-0.00000000E+00-0.00000000E+00-0.00000000E+00-0.00000000E+00-0.00000000E+00
 8 15-0.00000000E+00-0.00000000E+00-0.00000000E+00-0.00000000E+00-0.00000000E+00
 8 16-0.00000000E+00
 9  1-1.37700205E-03 7.99832682E-03 0.00000000E+00 0.00000000E+00 9.71953010E-01
 9  2-2.85513955E-03 0.00000000E+00 0.00000000E+00 1.07265643E-01 1.85295221E-02
 9  3 0.00000000E+00 0.00000000E+00-1.23118347E-02 1.60869340E-02 5.44881600E-03
 9  4 1.25119854E-02 0.00000000E+00 0.00000000E+00 0.00000000E+00 5.96871487E-04
 9  5 4.75554527E-03 1.22865728E-03 0.00000000E+00 1.43258916E-03-3.25994749E-02
 9  6-4.03997590E-02 0.00000000E+00-9.27424919E-03 5.96871487E-04 4.75554527E-03
 9  7-1.22865728E-03 0.00000000E+00 1.43258916E-03-3.25994749E-02 4.03997590E-02
 9  8 0.00000000E+00-9.27424919E-03-6.98837821E-04-3.07777363E-03-3.97364505E-04
 9  9 0.00000000E+00-8.89105971E-04 3.74496756E-02 2.62471057E-02 0.00000000E+00
 9 10-1.57446234E-02-6.98837821E-04-3.07777363E-03 3.97364505E-04 0.00000000E+00
 9 11-8.89105971E-04 3.74496756E-02-2.62471057E-02 0.00000000E+00-1.57446234E-02
 9 12 4.41066488E-04 1.91394273E-03 0.00000000E+00 0.00000000E+00-2.25687858E-04
 9 13-3.63029264E-02 0.00000000E+00 0.00000000E+00 2.42792960E-02 6.26896171E-03
 9 14 2.51209319E-04-2.15247496E-03-1.68490335E-02-2.15247496E-03-1.68490335E-02
 9 15 1.74949661E-03 7.93657145E-03 1.74949661E-03 7.93657145E-03-7.93099554E-04
 9 16-6.25952852E-03
10  1 0.00000000E+00 0.00000000E+00 9.72308794E-01 0.00000000E+00 0.00000000E+00
10  2 0.00000000E+00 1.05528020E-01 0.00000000E+00 0.00000000E+00 0.00000000E+00
10  3-1.54146793E-02 0.00000000E+00 0.00000000E+00 0.00000000E+00 0.00000000E+00
10  4 0.00000000E+00 0.00000000E+00 1.20394225E-02 0.00000000E+00 1.12735761E-04
10  5-1.11338030E-03 1.27080715E-03 0.00000000E+00-1.08159194E-03 1.03434544E-02
10  6 2.16106219E-02 0.00000000E+00-1.57806985E-02-1.12735761E-04 1.11338030E-03
10  7 1.27080715E-03 0.00000000E+00 1.08159194E-03-1.03434544E-02 2.16106219E-02
10  8 0.00000000E+00 1.57806985E-02 2.45239829E-04 1.35073283E-03 1.48697849E-03
10  9 0.00000000E+00 6.37130764E-04-7.33605227E-03-2.07672264E-02 0.00000000E+00
10 10-6.71941210E-03-2.45239829E-04-1.35073283E-03 1.48697849E-03 0.00000000E+00
10 11-6.37130764E-04 7.33605227E-03-2.07672264E-02 0.00000000E+00 6.71941210E-03
10 12 0.00000000E+00 0.00000000E+00-7.96739354E-04 0.00000000E+00 0.00000000E+00
10 13 0.00000000E+00-1.70721588E-02 0.00000000E+00 0.00000000E+00 0.00000000E+00
10 14 0.00000000E+00 1.19208385E-03 5.12901597E-04-1.19208385E-03-5.12901597E-04
10 15-1.25978426E-03-4.50155257E-03 1.25978426E-03 4.50155257E-03 0.00000000E+00
10 16 0.00000000E+00
11  1 9.92660497E-03-4.72046534E-02-0.00000000E+00-0.00000000E+00-2.28718287E-02
11  2 5.45777811E-02-0.00000000E+00-0.00000000E+00 3.06876575E-02-2.93348734E-02
11  3-0.00000000E+00-0.00000000E+00-6.01599401E-02 1.05894601E-02 3.01192248E-03
11  4 9.73539057E-03-0.00000000E+00-0.00000000E+00-0.00000000E+00-7.50652967E-02
11  5 7.36186969E-02 1.95334110E-02-0.00000000E+00 5.39652269E-02 1.82536364E-01
11  6 2.43533508E-02-0.00000000E+00 1.14800256E-02-7.50652967E-02 7.36186969E-02
11  7-1.95334110E-02-0.00000000E+00 5.39652269E-02 1.82536364E-01-2.43533508E-02
11  8-0.00000000E+00 1.14800256E-02-1.19469106E-01 1.31137956E-01 5.42238070E-02
11  9-0.00000000E+00-1.44501855E-02 2.35981186E-01 9.47889833E-03-0.00000000E+00
11 10-2.88559907E-03-1.19469106E-01 1.31137956E-01-5.42238070E-02-0.00000000E+00
11 11-1.44501855E-02 2.35981186E-01-9.47889833E-03-0.00000000E+00-2.88559907E-03
11 12-1.30884997E-01 1.41331404E-01-0.00000000E+00-0.00000000E+00-5.95542368E-02
11 13 2.64495602E-01-0.00000000E+00-0.00000000E+00-2.05415201E-02 7.48909957E-03
11 14-2.34139931E-02 2.87496025E-02 3.87719000E-03 2.87496025E-02 3.87719000E-03
11 15 4.83056054E-02-1.73557178E-03 4.83056054E-02-1.73557178E-03 5.22144772E-02
11 16 6.53105363E-04
12  1 0.00000000E+00 0.00000000E+00 3.73003621E-02 0.00000000E+00 0.00000000E+00
12  2 0.00000000E+00-5.64468496E-02 0.00000000E+00 0.00000000E+00 0.00000000E+00
12  3 1.22216408E-02 0.00000000E+00 0.00000000E+00 0.00000000E+00 0.00000000E+00
12  4 0.00000000E+00 0.00000000E+00-2.51573105E-02 0.00000000E+00-1.10153806E-01
12  5 1.15835306E-01-2.40697093E-03 0.00000000E+00 7.52383591E-02 2.43648249E-01
12  6-1.16647434E-02 0.00000000E+00 1.08144936E-02 1.10153806E-01-1.15835306E-01
12  7-2.40697093E-03 0.00000000E+00-7.52383591E-02-2.43648249E-01-1.16647434E-02
12  8 0.00000000E+00-1.08144936E-02-1.24745845E-01 1.34053728E-01-1.55172069E-02
12  9 0.00000000E+00-5.25992219E-02 3.04236491E-01 9.84490124E-03 0.00000000E+00
12 10-1.53836425E-02 1.24745845E-01-1.34053728E-01-1.55172069E-02 0.00000000E+00
12 11 5.25992219E-02-3.04236491E-01 9.84490124E-03 0.00000000E+00 1.53836425E-02
12 12 0.00000000E+00 0.00000000E+00-1.08759915E-01 0.00000000E+00 0.00000000E+00
12 13 0.00000000E+00-1.05687741E-02 0.00000000E+00 0.00000000E+00 0.00000000E+00
12 14 0.00000000E+00 5.73311245E-02 7.82958674E-03-5.73311245E-02-7.82958674E-03
12 15 6.87717515E-02 1.58770217E-02-6.87717515E-02-1.58770217E-02 0.00000000E+00
12 16 0.00000000E+00
13  1-2.19856554E-02 1.09362229E-01 0.00000000E+00 0.00000000E+00 3.00494189E-02
13  2-1.07944708E-01 0.00000000E+00 0.00000000E+00-3.89172963E-02-3.81955414E-02
13  3 0.00000000E+00 0.00000000E+00 2.49372712E-02-3.61085092E-02 1.72172375E-03
13  4-1.54287387E-02 0.00000000E+00 0.00000000E+00 0.00000000E+00 1.13578532E-01
13  5-1.12342382E-01 1.33929455E-03 0.00000000E+00-8.55267566E-03-3.19144133E-01
13  6-1.30602341E-02 0.00000000E+00-9.90137675E-03 1.13578532E-01-1.12342382E-01
13  7-1.33929455E-03 0.00000000E+00-8.55267566E-03-3.19144133E-01 1.30602341E-02
13  8 0.00000000E+00-9.90137675E-03-1.03273781E-02 1.28120301E-02 8.47729210E-02
13  9 0.00000000E+00 1.28864801E-01 2.38772439E-02 9.80689168E-03 0.00000000E+00
13 10 3.66557681E-02-1.03273781E-02 1.28120301E-02-8.47729210E-02 0.00000000E+00
13 11 1.28864801E-01 2.38772439E-02-9.80689168E-03 0.00000000E+00 3.66557681E-02
13 12-1.34411577E-01 1.41080444E-01 0.00000000E+00 0.00000000E+00 1.43692999E-02
13 13 3.62517373E-01 0.00000000E+00 0.00000000E+00-3.73295587E-03-2.16978515E-02
13 14-4.64145885E-03-7.38678298E-02-2.55465827E-02-7.38678298E-02-2.55465827E-02
13 15 9.78410982E-03-1.02288875E-03 9.78410982E-03-1.02288875E-03 9.40615033E-02
13 16 3.11797861E-02
14  1 0.00000000E+00 0.00000000E+00 6.17007337E-02 0.00000000E+00 0.00000000E+00
14  2 0.00000000E+00-1.01445622E-01 0.00000000E+00 0.00000000E+00 0.00000000E+00
14  3-1.39362614E-02 0.00000000E+00 0.00000000E+00 0.00000000E+00 0.00000000E+00
14  4 0.00000000E+00 0.00000000E+00-3.36143746E-02 0.00000000E+00-9.90446683E-02
14  5 9.90099619E-02-3.49532108E-02 0.00000000E+00-4.65407768E-02 3.05444815E-01
14  6-2.61786116E-02 0.00000000E+00-1.89149623E-02 9.90446683E-02-9.90099619E-02
14  7-3.49532108E-02 0.00000000E+00 4.65407768E-02-3.05444815E-01-2.61786116E-02
14  8 0.00000000E+00 1.89149623E-02 8.37631798E-02-8.94187960E-02-3.21951752E-02
14  9 0.00000000E+00-1.42494752E-01-2.63552456E-01-3.04389056E-03 0.00000000E+00
14 10-6.34615958E-02-8.37631798E-02 8.94187960E-02-3.21951752E-02 0.00000000E+00
14 11 1.42494752E-01 2.63552456E-01-3.04389056E-03 0.00000000E+00 6.34615958E-02
14 12 0.00000000E+00 0.00000000E+00 2.07239981E-01 0.00000000E+00 0.00000000E+00
14 13 0.00000000E+00 8.27737291E-02 0.00000000E+00 0.00000000E+00 0.00000000E+00
14 14 0.00000000E+00 1.00174146E-01 4.41279972E-02-1.00174146E-01-4.41279972E-02
14 15-9.31531220E-02-4.06191566E-02 9.31531220E-02 4.06191566E-02 0.00000000E+00
14 16 0.00000000E+00
15  1-3.69424192E-02 1.87392361E-01-0.00000000E+00-0.00000000E+00 1.34247005E-02
15  2-1.96696592E-01-0.00000000E+00-0.00000000E+00-1.53458032E-02-1.50249823E-01
15  3-0.00000000E+00-0.00000000E+00 8.44074574E-03-4.24225840E-02 5.78871416E-03
15  4-3.94048183E-02-0.00000000E+00-0.00000000E+00-0.00000000E+00 1.27791051E-02
15  5-7.84081895E-03-9.60666890E-02-0.00000000E+00 1.22173812E-01-7.59808410E-02
15  6-6.61418846E-02-0.00000000E+00 6.25330632E-02 1.27791051E-02-7.84081895E-03
15  7 9.60666890E-02-0.00000000E+00 1.22173812E-01-7.59808410E-02 6.61418846E-02
15  8-0.00000000E+00 6.25330632E-02-6.65535465E-02 6.74500790E-02-1.60454043E-01
15  9-0.00000000E+00-1.22170561E-02 2.40416161E-01-8.58714772E-02-0.00000000E+00
15 10 9.75833415E-04-6.65535465E-02 6.74500790E-02 1.60454043E-01-0.00000000E+00
15 11-1.22170561E-02 2.40416161E-01 8.58714772E-02-0.00000000E+00 9.75833415E-04
15 12 6.89694766E-02-7.13468711E-02-0.00000000E+00-0.00000000E+00 1.61273621E-03
15 13-2.31980760E-01-0.00000000E+00-0.00000000E+00 1.38789581E-02-7.43512084E-02
15 14-6.98627243E-02 1.52987404E-02 1.30616337E-02 1.52987404E-02 1.30616337E-02
15 15 1.21433080E-01 6.60571840E-02 1.21433080E-01 6.60571840E-02-5.58568437E-02
15 16-3.00422669E-02
16  1 9.13632274E-03-4.67172901E-02 0.00000000E+00 0.00000000E+00 3.26095196E-02
16  2 4.06334601E-02 0.00000000E+00 0.00000000E+00-5.45868599E-02 7.16295584E-02
16  3 0.00000000E+00 0.00000000E+00 7.64048645E-03 2.27773289E-02-4.92687612E-04
16  4 8.27649524E-03 0.00000000E+00 0.00000000E+00 0.00000000E+00-2.56779643E-02
16  5 2.31463078E-02-1.18347674E-01 0.00000000E+00-1.16818030E-01 1.02122361E-01
16  6-8.71538920E-02 0.00000000E+00-6.51554652E-02-2.56779643E-02 2.31463078E-02
16  7 1.18347674E-01 0.00000000E+00-1.16818030E-01 1.02122361E-01 8.71538920E-02
16  8 0.00000000E+00-6.51554652E-02 2.88264516E-02-3.31339150E-02-1.05325448E-01
16  9 0.00000000E+00 1.10724418E-01-8.86830160E-02-7.52332204E-02 0.00000000E+00
16 10 7.70262400E-02 2.88264516E-02-3.31339150E-02 1.05325448E-01 0.00000000E+00
16 11 1.10724418E-01-8.86830160E-02 7.52332204E-02 0.00000000E+00 7.70262400E-02
16 12-3.41745770E-02 2.95741879E-02 0.00000000E+00 0.00000000E+00 2.34821630E-01
16 13 1.47385402E-01 0.00000000E+00 0.00000000E+00 1.51721493E-01 4.54172136E-02
16 14 5.98428648E-02 1.12024573E-01 7.31017056E-02 1.12024573E-01 7.31017056E-02
16 15 6.26907721E-02 4.38571026E-02 6.26907721E-02 4.38571026E-02 1.67958731E-01
16 16 1.10675016E-01
17  1 3.29192185E-02-1.70173130E-01 0.00000000E+00 0.00000000E+00 5.99936219E-02
17  2 1.70994939E-01 0.00000000E+00 0.00000000E+00-1.23765006E-01 1.84123371E-01
17  3 0.00000000E+00 0.00000000E+00-3.38816553E-02-5.85098850E-04-2.08665812E-03
17  4 7.15723465E-02 0.00000000E+00 0.00000000E+00 0.00000000E+00 4.32677133E-02
17  5-4.48178836E-02 1.11866049E-01 0.00000000E+00 1.50462891E-04-1.35306119E-01
17  6 1.11798547E-01 0.00000000E+00-1.72899479E-03 4.32677133E-02-4.48178836E-02
17  7-1.11866049E-01 0.00000000E+00 1.50462891E-04-1.35306119E-01-1.11798547E-01
17  8 0.00000000E+00-1.72899479E-03-3.71522016E-02 3.79649535E-02-1.06292009E-01
17  9 0.00000000E+00 7.55685496E-02 1.37334374E-01-1.08474886E-01 0.00000000E+00
17 10 7.49984122E-02-3.71522016E-02 3.79649535E-02 1.06292009E-01 0.00000000E+00
17 11 7.55685496E-02 1.37334374E-01 1.08474886E-01 0.00000000E+00 7.49984122E-02
17 12 4.84102147E-02-5.16008263E-02 0.00000000E+00 0.00000000E+00-9.94750234E-03
17 13-1.50862291E-01 0.00000000E+00 0.00000000E+00-4.44014886E-02 1.64049722E-01
17 14 2.04344580E-01-1.11139705E-01-7.92033146E-02-1.11139705E-01-7.92033146E-02
17 15 1.23455489E-01 7.84563383E-02 1.23455489E-01 7.84563383E-02-5.42414977E-02
17 16-2.32370080E-02
18  1-0.00000000E+00-0.00000000E+00-1.31666745E-02-0.00000000E+00-0.00000000E+00
18  2-0.00000000E+00 2.24844077E-02-0.00000000E+00-0.00000000E+00-0.00000000E+00
18  3-8.03180991E-03-0.00000000E+00-0.00000000E+00-0.00000000E+00-0.00000000E+00
18  4-0.00000000E+00-0.00000000E+00 2.19785228E-02-0.00000000E+00 1.08784123E-02
18  5-1.38469639E-02-1.81072469E-01-0.00000000E+00-1.50047023E-01-6.50893445E-03
18  6-1.40958280E-01-0.00000000E+00-9.39649739E-02-1.08784123E-02 1.38469639E-02
18  7-1.81072469E-01-0.00000000E+00 1.50047023E-01 6.50893445E-03-1.40958280E-01
18  8-0.00000000E+00 9.39649739E-02 2.05675912E-02-2.42154659E-02-1.21484510E-01
18  9-0.00000000E+00 1.86127569E-01-4.73206084E-02-1.08101716E-01-0.00000000E+00
18 10 1.36072918E-01-2.05675912E-02 2.42154659E-02-1.21484510E-01-0.00000000E+00
18 11-1.86127569E-01 4.73206084E-02-1.08101716E-01-0.00000000E+00-1.36072918E-01
18 12-0.00000000E+00-0.00000000E+00 2.12497562E-02-0.00000000E+00-0.00000000E+00
18 13-0.00000000E+00 8.02727796E-03-0.00000000E+00-0.00000000E+00-0.00000000E+00
18 14-0.00000000E+00 1.38700008E-01 1.11401695E-01-1.38700008E-01-1.11401695E-01
18 15 1.19645148E-01 9.17148729E-02-1.19645148E-01-9.17148729E-02-0.00000000E+00
18 16-0.00000000E+00
19  1 0.00000000E+00 0.00000000E+00-9.21120031E-02 0.00000000E+00 0.00000000E+00
19  2 0.00000000E+00 1.74203269E-01 0.00000000E+00 0.00000000E+00 0.00000000E+00
19  3 5.28476804E-02 0.00000000E+00 0.00000000E+00 0.00000000E+00 0.00000000E+00
19  4 0.00000000E+00 0.00000000E+00 4.97485333E-02 0.00000000E+00 2.23135745E-02
19  5-1.82957143E-02-4.99496459E-02 0.00000000E+00 1.81853466E-01-8.87989444E-02
19  6-1.60902395E-03 0.00000000E+00 1.31339598E-01-2.23135745E-02 1.82957143E-02
19  7-4.99496459E-02 0.00000000E+00-1.81853466E-01 8.87989444E-02-1.60902395E-03
19  8 0.00000000E+00-1.31339598E-01-5.44860209E-03 6.59804535E-03-2.25409392E-01
19  9 0.00000000E+00-1.39418437E-01 1.53116514E-02-1.84639861E-01 0.00000000E+00
19 10-6.38687463E-02 5.44860209E-03-6.59804535E-03-2.25409392E-01 0.00000000E+00
19 11 1.39418437E-01-1.53116514E-02-1.84639861E-01 0.00000000E+00 6.38687463E-02
19 12 0.00000000E+00 0.00000000E+00 2.79718855E-01 0.00000000E+00 0.00000000E+00
19 13 0.00000000E+00 1.55058468E-01 0.00000000E+00 0.00000000E+00 0.00000000E+00
19 14 0.00000000E+00-3.38322345E-02-1.18057953E-02 3.38322345E-02 1.18057953E-02
19 15 7.58094881E-02 4.86376998E-02-7.58094881E-02-4.86376998E-02 0.00000000E+00
19 16 0.00000000E+00
20  1 3.94900746E-03-2.10874166E-02 0.00000000E+00 0.00000000E+00-9.62878329E-02
20  2 2.20265203E-02 0.00000000E+00 0.00000000E+00 1.70074292E-01-1.69571925E-02
20  3 0.00000000E+00 0.00000000E+00 5.55411179E-02 2.55575285E-02 1.00893011E-03
20  4-2.71344861E-02 0.00000000E+00 0.00000000E+00 0.00000000E+00-1.86086936E-02
20  5 1.80403937E-02 1.59099942E-01 0.00000000E+00 7.80278122E-02 5.63877171E-02
20  6 1.47678770E-01 0.00000000E+00 5.96032338E-02-1.86086936E-02 1.80403937E-02
20  7-1.59099942E-01 0.00000000E+00 7.80278122E-02 5.63877171E-02-1.47678770E-01
20  8 0.00000000E+00 5.96032338E-02 1.34730579E-02-1.73236305E-02-1.03179923E-01
20  9 0.00000000E+00-9.88031084E-02-3.16295114E-02-3.93357696E-02 0.00000000E+00
20 10-7.15852480E-02 1.34730579E-02-1.73236305E-02 1.03179923E-01 0.00000000E+00
20 11-9.88031084E-02-3.16295114E-02 3.93357696E-02 0.00000000E+00-7.15852480E-02
20 12 1.79687146E-02-2.09844415E-02 0.00000000E+00 0.00000000E+00 2.77388757E-01
20 13-5.48407053E-02 0.00000000E+00 0.00000000E+00 2.69990817E-01-1.05725459E-01
20 14-1.48666302E-01-1.12270720E-01-9.83074436E-02-1.12270720E-01-9.83074436E-02
20 15 4.55549258E-03 1.75959966E-02 4.55549258E-03 1.75959966E-02 1.87518849E-01
20 16 1.54913447E-01
21  1-7.83263115E-03 4.22211032E-02-0.00000000E+00-0.00000000E+00 1.29368756E-01
21  2-4.23468370E-02-0.00000000E+00-0.00000000E+00-2.47290705E-01-3.13897473E-02
21  3-0.00000000E+00-0.00000000E+00-1.09837999E-01-7.61932930E-02-7.75391783E-04
21  4 7.17112253E-02-0.00000000E+00-0.00000000E+00-0.00000000E+00 1.22775597E-03
21  5 5.92748958E-03-6.67064765E-02-0.00000000E+00 1.92134341E-01-4.39601175E-02
21  6-7.27117376E-02-0.00000000E+00 1.35382419E-01 1.22775597E-03 5.92748958E-03
21  7 6.67064765E-02-0.00000000E+00 1.92134341E-01-4.39601175E-02 7.27117376E-02
21  8-0.00000000E+00 1.35382419E-01-1.28505568E-03 1.75513260E-03 6.13686571E-03
21  9-0.00000000E+00-1.87242810E-01 1.47349331E-02 4.39645729E-02-0.00000000E+00
21 10-1.69852168E-01-1.28505568E-03 1.75513260E-03-6.13686571E-03-0.00000000E+00
21 11-1.87242810E-01 1.47349331E-02-4.39645729E-02-0.00000000E+00-1.69852168E-01
21 12-1.40421379E-02 1.18399259E-02-0.00000000E+00-0.00000000E+00 1.10935968E-01
21 13 6.65059772E-02-0.00000000E+00-0.00000000E+00 1.50725665E-01 1.78763006E-01
21 14 2.67563259E-01-2.90669696E-03-1.27588712E-02-2.90669696E-03-1.27588712E-02
21 15-9.42319739E-02-8.13096458E-02-9.42319739E-02-8.13096458E-02 1.07671370E-01
21 16 8.38289321E-02
22  1 0.00000000E+00 0.00000000E+00 0.00000000E+00-5.49207229E-02 0.00000000E+00
22  2 0.00000000E+00 0.00000000E+00 9.94775425E-02 0.00000000E+00 0.00000000E+00
22  3 0.00000000E+00 9.33201624E-02 0.00000000E+00 0.00000000E+00 0.00000000E+00
22  4 0.00000000E+00 0.00000000E+00 0.00000000E+00 2.67327574E-02 0.00000000E+00
22  5 0.00000000E+00 0.00000000E+00 1.53019684E-01 0.00000000E+00 0.00000000E+00
22  6 0.00000000E+00 1.57387288E-01 0.00000000E+00 0.00000000E+00 0.00000000E+00
22  7 0.00000000E+00 1.53019684E-01 0.00000000E+00 0.00000000E+00 0.00000000E+00
22  8 1.57387288E-01 0.00000000E+00 0.00000000E+00 0.00000000E+00 0.00000000E+00
22  9 2.05108701E-01 0.00000000E+00 0.00000000E+00 0.00000000E+00 2.04551914E-01
22 10 0.00000000E+00 0.00000000E+00 0.00000000E+00 0.00000000E+00 2.05108701E-01
22 11 0.00000000E+00 0.00000000E+00 0.00000000E+00 2.04551914E-01 0.00000000E+00
22 12 0.00000000E+00 0.00000000E+00 0.00000000E+00 2.25073456E-01 0.00000000E+00
22 13 0.00000000E+00 0.00000000E+00 2.25610531E-01 0.00000000E+00 0.00000000E+00
22 14 0.00000000E+00 0.00000000E+00 0.00000000E+00 0.00000000E+00 0.00000000E+00
22 15 0.00000000E+00 0.00000000E+00 0.00000000E+00 0.00000000E+00 0.00000000E+00
22 16 0.00000000E+00
23  1 0.00000000E+00 0.00000000E+00-1.43778571E-01 0.00000000E+00 0.00000000E+00
23  2 0.00000000E+00 2.70223277E-01 0.00000000E+00 0.00000000E+00 0.00000000E+00
23  3 9.90447004E-02 0.00000000E+00 0.00000000E+00 0.00000000E+00 0.00000000E+00
23  4 0.00000000E+00 0.00000000E+00 7.65569065E-02 0.00000000E+00 1.82707276E-02