! 
! This test job is a 2x2 NEO-NCI calculation of the [HeHHe]+ system where the
! option to do a Full NEO-NCI for the proton is selected. 
! The localized orbitals ($LOCEL1,$LOCEL2,$LOCPRO1,$LOCPRO2) were previously
! obtained from the NEO-HF calculations in the directory ../LOCALIZED_HF_FILES
! 
!
!
!  NEO-NCI EIGENVALUES AND EIGENVECTORS
! -------------------------------------
!
! STATE =  1 ENERGY =     -5.7570270189
!
!       ELEC |     PROT |         1
!    occ exc |  occ exc |
! -----------------------
! L          |          |    -0.5517767
! R          |          |     0.5517766
! L          |    1  14 |     0.3010342
! R          |    1  14 |    -0.3010342
! L          |    1  17 |     0.1200537
! R          |    1  17 |    -0.1200537
! L          |    1  21 |     0.2573417
! R          |    1  21 |    -0.2573417
! L          |    1  27 |     0.1451966
! R          |    1  27 |     0.1451965
!
! STATE =  2 ENERGY =     -5.7569715463
!
!       ELEC |     PROT |         2
!    occ exc |  occ exc |
! -----------------------
! L          |          |     0.5516584
! R          |          |     0.5516584
! L          |    1  14 |     0.2989171
! R          |    1  14 |     0.2989171
! L          |    1  17 |     0.1191979
! R          |    1  17 |     0.1191980
! L          |    1  21 |     0.2610924
! R          |    1  21 |     0.2610924
! L          |    1  27 |     0.1457695
! R          |    1  27 |    -0.1457696
!
!
!  VIBRONIC SPLITTING =     12.1748209478 cm-1
!
!  VIBRONIC COUPLING  =      6.0874104739 cm-1
!
! 
!-------------------------------------------- 
 $CONTRL SCFTYP=RHF RUNTYP=ENERGY MAXIT=200
         INTTYP=HONDO ICHARG=1 MULT=1 $END 
 $SYSTEM TIMLIM=3000 MEMORY=110128881  $END 
 $NEO    NEOSCF=DIAGZN BASNUC=QZSPDD NUNIQN=1 
         NTAUXB=1 NAUXNB=1 IUNIQN(1)=3
         IAUXNB(1)=4 NUMULT=2  NEONCI=.T. $END 
 $NCIINP NUMCNT=2 NUMNCI=2 NUCFCI=.T. CUTNCI=1.0D-1 $END
 $BASIS  GBASIS=N31 NGAUSS=6 $END 
 $GUESS  GUESS=MOREAD NORB=8 $END 
 $DATA 
 
 C1 
 HE   2.0     0.00	 0.00  -1.15
 HE   2.0     0.00	 0.00	1.15
 H    1.0     0.00	 0.00  -0.41
 H    1.0     0.00	 0.00	0.41
 $END 
--- CLOSED SHELL ORBITALS --- GENERATED AT Mon Aug 27 21:40:51 2007
                                                                                                                                                           
E(RHF)=       -5.7561019593, E(NUC)=    0.9203082595,    8 ITERS
 $VEC
 1  1 5.92442428E-01 3.74843203E-01 4.44233282E-02 2.18226180E-02 1.88213906E-01
 1  2 1.63674443E-02-1.16417753E-03 1.84676162E-02
 2  1-7.95956591E-02-7.71442250E-02 5.93391824E-01 4.51026003E-01 9.01323339E-03
 2  2 2.32626322E-02 4.17911676E-02 3.69577905E-02
 3  1-2.54187998E-01-7.75769519E-01-1.64303216E-01-4.47420554E-01 3.11157422E-01
 3  2 9.95763671E-01 3.94282055E-02 3.30028841E-01
 4  1 1.96687678E-01 1.31140101E+00-1.71801486E-01-1.51812337E+00 1.08324331E-01
 4  2-4.31732893E+00-3.61537267E-02 4.43740526E+00
 5  1 1.21849558E-01-4.48281121E-01 1.31583566E-01 2.51405776E-01 1.13503508E+00
 5  2-2.82072976E-01 3.31902514E-01-8.79917723E-01
 6  1-8.14231968E-01 1.19335016E+00-7.72205737E-01 1.39557455E+00 4.82040846E-01
 6  2-7.92975703E-01-3.12491541E-01-3.91992887E-01
 7  1 8.10349529E-01-2.23336942E+00-4.29515457E-01 1.63206980E+00 2.55528902E-01
 7  2 2.89440051E+00-8.62964540E-01-2.27363851E+00
 8  1-4.48487607E-01 1.01044881E+00 8.87441004E-01-1.64886825E+00 4.59802859E-01
 8  2-2.28914170E+00-9.92125471E-01 2.83888111E+00
 $END
--- LEFT LOCALIZED ELEC ORBITALS --- GENERATED AT Mon Aug 27 21:40:51 2007
                                                                                
E(RHF)=       -5.7561019593, E(NUC)=    0.9203082595,    8 ITERS
 $LOCEL1
 1  1-5.92442428E-01-3.74843203E-01-4.44233282E-02-2.18226180E-02-1.88213906E-01
 1  2-1.63674443E-02 1.16417753E-03-1.84676162E-02
 2  1-7.95956591E-02-7.71442250E-02 5.93391824E-01 4.51026003E-01 9.01323339E-03
 2  2 2.32626322E-02 4.17911676E-02 3.69577905E-02
 3  1 2.54187998E-01 7.75769519E-01 1.64303216E-01 4.47420554E-01-3.11157422E-01
 3  2-9.95763671E-01-3.94282055E-02-3.30028841E-01
 4  1 1.96687678E-01 1.31140101E+00-1.71801486E-01-1.51812337E+00 1.08324331E-01
 4  2-4.31732893E+00-3.61537267E-02 4.43740526E+00
 5  1 1.21849558E-01-4.48281121E-01 1.31583566E-01 2.51405776E-01 1.13503508E+00
 5  2-2.82072976E-01 3.31902514E-01-8.79917723E-01
 6  1 8.14231968E-01-1.19335016E+00 7.72205737E-01-1.39557455E+00-4.82040846E-01
 6  2 7.92975703E-01 3.12491541E-01 3.91992887E-01
 7  1-8.10349529E-01 2.23336942E+00 4.29515457E-01-1.63206980E+00-2.55528902E-01
 7  2-2.89440051E+00 8.62964540E-01 2.27363851E+00
 8  1 4.48487607E-01-1.01044881E+00-8.87441004E-01 1.64886825E+00-4.59802859E-01
 8  2 2.28914170E+00 9.92125471E-01-2.83888111E+00
 $END
--- LEFT LOCALIZED NUC ORBITALS --- GENERATED AT Mon Aug 27 21:40:51 2007
                                                                                
E(RHF)=       -5.7561019593, E(NUC)=    0.9203082595,    8 ITERS
 $LOCPR1
 1  1-2.15210329E+00-1.63090933E+01 2.50342215E+01-6.47838951E-02 0.00000000E+00
 1  2 0.00000000E+00-1.93962926E-01 0.00000000E+00 0.00000000E+00 6.95126179E-01
 1  3 0.00000000E+00 0.00000000E+00-9.71098338E-01 0.00000000E+00 0.00000000E+00
 1  4-1.68254629E-01-1.75260052E+00-1.75260052E+00-1.50792293E+00 0.00000000E+00
 1  5 0.00000000E+00 0.00000000E+00-2.32795921E+00-2.32795921E+00-2.87901693E+00
 1  6 0.00000000E+00 0.00000000E+00 0.00000000E+00 2.30864741E-02 1.25348760E-01
 1  7-2.06965380E-01-8.32758613E-05 0.00000000E+00 0.00000000E+00 2.98265227E-04
 1  8 0.00000000E+00 0.00000000E+00-1.15353200E-03 0.00000000E+00 0.00000000E+00
 1  9 1.42065310E-03 0.00000000E+00 0.00000000E+00-9.16243414E-04 1.59840439E-02
 1 10 1.59840439E-02 1.53912700E-02 0.00000000E+00 0.00000000E+00 0.00000000E+00
 1 11 1.79369651E-02 1.79369651E-02 1.86799109E-02 0.00000000E+00 0.00000000E+00
 1 12 0.00000000E+00
 2  1 0.00000000E+00 0.00000000E+00 0.00000000E+00 0.00000000E+00 2.04107717E-01
 2  2-2.22832219E-01 0.00000000E+00-7.70999762E-01 8.41729994E-01 0.00000000E+00
 2  3 1.00661275E+00-1.09895772E+00 0.00000000E+00 1.26304483E-01-1.37891446E-01
 2  4 0.00000000E+00 0.00000000E+00 0.00000000E+00 0.00000000E+00-7.44266328E-11
 2  5-2.54911025E-01 2.78296137E-01 0.00000000E+00 0.00000000E+00 0.00000000E+00
 2  6 1.59325391E-10 5.90759166E-01-6.44954427E-01 0.00000000E+00 0.00000000E+00
 2  7 0.00000000E+00 0.00000000E+00-1.26457191E-04 1.38058163E-04 0.00000000E+00
 2  8 3.54360418E-04-3.86868852E-04 0.00000000E+00-3.03102616E-04 3.30908745E-04
 2  9 0.00000000E+00 8.72183170E-05-9.52195799E-05 0.00000000E+00 0.00000000E+00
 2 10 0.00000000E+00 0.00000000E+00-2.48779552E-11 5.79010732E-06-6.32128207E-06
 2 11 0.00000000E+00 0.00000000E+00 0.00000000E+00 4.27407040E-11-6.43913781E-06
 2 12 7.02985345E-06
 3  1 0.00000000E+00 0.00000000E+00 0.00000000E+00 0.00000000E+00-2.22832219E-01
 3  2-2.04107717E-01 0.00000000E+00 8.41729994E-01 7.70999762E-01 0.00000000E+00
 3  3-1.09895772E+00-1.00661275E+00 0.00000000E+00-1.37891446E-01-1.26304483E-01
 3  4 0.00000000E+00 0.00000000E+00 0.00000000E+00 0.00000000E+00-3.76028760E-11
 3  5 2.78296137E-01 2.54911025E-01 0.00000000E+00 0.00000000E+00 0.00000000E+00
 3  6 5.59243790E-11-6.44954427E-01-5.90759166E-01 0.00000000E+00 0.00000000E+00
 3  7 0.00000000E+00 0.00000000E+00 1.38058163E-04 1.26457191E-04 0.00000000E+00
 3  8-3.86868853E-04-3.54360419E-04 0.00000000E+00 3.30908746E-04 3.03102618E-04
 3  9 0.00000000E+00-9.52195798E-05-8.72183168E-05 0.00000000E+00 0.00000000E+00
 3 10 0.00000000E+00 0.00000000E+00-3.80821860E-11-6.32128201E-06-5.79010719E-06
 3 11 0.00000000E+00 0.00000000E+00 0.00000000E+00 4.73547475E-11 7.02985331E-06
 3 12 6.43913745E-06
 4  1 8.13842852E+00 5.39132224E+01-8.67646818E+01 2.75719694E-01 0.00000000E+00
 4  2 0.00000000E+00 3.60821258E-01 0.00000000E+00 0.00000000E+00-1.24907289E+00
 4  3 0.00000000E+00 0.00000000E+00 4.77619851E-01 0.00000000E+00 0.00000000E+00
 4  4 6.34082793E-01 6.23265397E+00 6.23265397E+00 5.55471518E+00 0.00000000E+00
 4  5 0.00000000E+00 0.00000000E+00 7.56665315E+00 7.56665315E+00 8.56664228E+00
 4  6 0.00000000E+00 0.00000000E+00 0.00000000E+00-1.07426289E-01-6.67609579E-01
 4  7 1.07366640E+00 4.78534822E-03 0.00000000E+00 0.00000000E+00 6.12170162E-03
 4  8 0.00000000E+00 0.00000000E+00-1.65421578E-02 0.00000000E+00 0.00000000E+00
 4  9 1.31867737E-02 0.00000000E+00 0.00000000E+00-2.41901522E-03-7.79237334E-02
 4 10-7.79237334E-02-7.68504239E-02 0.00000000E+00 0.00000000E+00 0.00000000E+00
 4 11-9.68784832E-02-9.68784832E-02-9.83598689E-02 0.00000000E+00 0.00000000E+00
 4 12 0.00000000E+00
 5  1 1.15884341E+01 6.87978999E+01-1.11410953E+02 3.96971035E-01 0.00000000E+00
 5  2 0.00000000E+00-1.87698837E-01 0.00000000E+00 0.00000000E+00 1.09920707E+00
 5  3 0.00000000E+00 0.00000000E+00-2.00519034E+00 0.00000000E+00 0.00000000E+00
 5  4 8.05279309E-01 8.24850369E+00 8.24850369E+00 8.15925479E+00 0.00000000E+00
 5  5 0.00000000E+00 0.00000000E+00 1.00837094E+01 1.00837094E+01 9.31915541E+00
 5  6 0.00000000E+00 0.00000000E+00 0.00000000E+00-5.95440006E-02-5.53899740E-01
 5  7 8.37242585E-01 8.86402982E-03 0.00000000E+00 0.00000000E+00 1.39662532E-02
 5  8 1.90988152E-11 0.00000000E+00-3.95558280E-02-1.34506596E-11 0.00000000E+00
 5  9 3.40524163E-02 0.00000000E+00 0.00000000E+00-9.33112131E-03-5.24259829E-02
 5 10-5.24259829E-02-5.28778820E-02 0.00000000E+00 0.00000000E+00 0.00000000E+00
 5 11-8.07855474E-02-8.07855474E-02-8.05254923E-02 0.00000000E+00 0.00000000E+00
 5 12 0.00000000E+00
 6  1 0.00000000E+00 0.00000000E+00 0.00000000E+00 0.00000000E+00 6.70392485E-10
 6  2 7.05277636E-11 0.00000000E+00-2.14518191E-09-6.05721422E-10 0.00000000E+00
 6  3 9.18079777E-10 3.47192780E-10 0.00000000E+00 4.59241904E-10-4.71299198E-11
 6  4 0.00000000E+00-1.68164984E-03 1.68164984E-03 0.00000000E+00 5.46768059E-01
 6  5-9.17270919E-10-1.74120226E-10 4.61843833E-03-4.61843833E-03 0.00000000E+00
 6  6-1.50162923E+00 9.19961177E-10 2.66503585E-10 0.00000000E+00 0.00000000E+00
 6  7 0.00000000E+00 0.00000000E+00-7.45998835E-11 1.80103423E-11 0.00000000E+00
 6  8 3.44374937E-10 1.38628261E-11 0.00000000E+00-3.00438035E-10-6.12437119E-11
 6  9 0.00000000E+00 2.63761202E-11 4.01068930E-11 0.00000000E+00-3.39536648E-11
 6 10 3.39552657E-11 0.00000000E+00-6.10682574E-08-5.43521163E-11 2.35820033E-11
 6 11 3.61018654E-11-3.60971397E-11 0.00000000E+00 6.96336431E-08 7.35066245E-11
 6 12-4.98470937E-11
 7  1 0.00000000E+00 0.00000000E+00 0.00000000E+00 0.00000000E+00 0.00000000E+00
 7  2 0.00000000E+00 0.00000000E+00 0.00000000E+00 0.00000000E+00 0.00000000E+00
 7  3 0.00000000E+00 0.00000000E+00 0.00000000E+00 0.00000000E+00 0.00000000E+00
 7  4 0.00000000E+00 4.73515029E-01-4.73515029E-01 0.00000000E+00 1.94180198E-03
 7  5 0.00000000E+00 0.00000000E+00-1.30044906E+00 1.30044906E+00 0.00000000E+00
 7  6-5.33291322E-03 0.00000000E+00 0.00000000E+00 0.00000000E+00 0.00000000E+00
 7  7 0.00000000E+00 0.00000000E+00 0.00000000E+00 0.00000000E+00 0.00000000E+00
 7  8 0.00000000E+00 0.00000000E+00 0.00000000E+00 0.00000000E+00 0.00000000E+00
 7  9 0.00000000E+00 0.00000000E+00 0.00000000E+00 0.00000000E+00 9.56121630E-09
 7 10-9.56051960E-09 0.00000000E+00-2.16878904E-10 0.00000000E+00 0.00000000E+00
 7 11-1.01650847E-08 1.01646024E-08 0.00000000E+00 2.47298084E-10 0.00000000E+00
 7 12 0.00000000E+00
 8  1 0.00000000E+00 0.00000000E+00 0.00000000E+00 0.00000000E+00-3.06461065E-01
 8  2 7.30281554E-01 0.00000000E+00 1.07464029E+00-2.56081463E+00 0.00000000E+00
 8  3-3.73855890E-01 8.90880085E-01 0.00000000E+00-2.93398482E-01 6.99154063E-01
 8  4 0.00000000E+00 0.00000000E+00 0.00000000E+00 0.00000000E+00-4.29187056E-11
 8  5 4.90355486E-01-1.16849286E+00 0.00000000E+00 0.00000000E+00 0.00000000E+00
 8  6-2.09317656E-11-5.12836511E-01 1.22206403E+00 0.00000000E+00 0.00000000E+00
 8  7 0.00000000E+00 0.00000000E+00 3.93542231E-04-9.37791664E-04 0.00000000E+00
 8  8-1.11915514E-03 2.66689133E-03 0.00000000E+00 9.76030534E-04-2.32583247E-03
 8  9 0.00000000E+00-2.97132444E-04 7.08051910E-04 0.00000000E+00 0.00000000E+00
 8 10 0.00000000E+00 0.00000000E+00-3.57975598E-11-3.53962853E-05 8.43475964E-05
 8 11 0.00000000E+00 0.00000000E+00 0.00000000E+00 2.73913790E-11 4.09262323E-05
 8 12-9.75251867E-05
 9  1 0.00000000E+00 0.00000000E+00 0.00000000E+00 0.00000000E+00-7.30281554E-01
 9  2-3.06461065E-01 0.00000000E+00 2.56081463E+00 1.07464029E+00 0.00000000E+00
 9  3-8.90880085E-01-3.73855890E-01 0.00000000E+00-6.99154063E-01-2.93398482E-01
 9  4 0.00000000E+00 0.00000000E+00 0.00000000E+00 0.00000000E+00 3.99690848E-10
 9  5 1.16849286E+00 4.90355486E-01 0.00000000E+00 0.00000000E+00 0.00000000E+00
 9  6-1.02645366E-09-1.22206403E+00-5.12836511E-01 0.00000000E+00 0.00000000E+00
 9  7 0.00000000E+00 0.00000000E+00 9.37791664E-04 3.93542232E-04 0.00000000E+00
 9  8-2.66689133E-03-1.11915515E-03 0.00000000E+00 2.32583247E-03 9.76030535E-04
 9  9 0.00000000E+00-7.08051910E-04-2.97132444E-04 0.00000000E+00 0.00000000E+00
 9 10 0.00000000E+00 0.00000000E+00 3.97645600E-11-8.43475964E-05-3.53962854E-05
 9 11 0.00000000E+00 0.00000000E+00 0.00000000E+00-7.00762077E-11 9.75251868E-05
 9 12 4.09262327E-05
10  1 1.58379020E+01 7.17798163E+01-1.22365712E+02 6.44915966E-01 0.00000000E+00
10  2 0.00000000E+00-8.04538634E-01 0.00000000E+00 0.00000000E+00 3.59715436E+00
10  3 0.00000000E+00 0.00000000E+00-3.72474554E+00 0.00000000E+00 0.00000000E+00
10  4 1.19041000E+00 1.04582501E+01 1.04582501E+01 9.95999900E+00 0.00000000E+00
10  5 0.00000000E+00 0.00000000E+00 9.26867863E+00 9.26867863E+00 1.02698673E+01
10  6 0.00000000E+00 0.00000000E+00 0.00000000E+00-2.59032707E-01-2.05117990E+00
10  7 3.16577756E+00 4.15210981E-02-1.55452019E-11 0.00000000E+00 5.58920790E-02
10  8 3.62608152E-11 0.00000000E+00-1.62295643E-01-2.54475209E-11 0.00000000E+00
10  9 1.45594081E-01 0.00000000E+00 0.00000000E+00-4.75851942E-02-2.04601435E-01
10 10-2.04601435E-01-2.13450279E-01 0.00000000E+00 0.00000000E+00 0.00000000E+00
10 11-3.06972958E-01-3.06972958E-01-2.96734123E-01 0.00000000E+00 0.00000000E+00
10 12 0.00000000E+00
11  1 1.36662842E+01 5.47961035E+01-9.76471212E+01 5.17063339E-01 0.00000000E+00
11  2 0.00000000E+00-1.88953281E+00 1.58911255E-11 0.00000000E+00 6.66640421E+00
11  3-1.11058047E-11 0.00000000E+00-5.08325251E+00 0.00000000E+00 0.00000000E+00
11  4 8.01651861E-01 7.94691505E+00 7.94691505E+00 1.00345509E+01 0.00000000E+00
11  5 0.00000000E+00 0.00000000E+00 8.63012877E+00 8.63012877E+00 6.32049253E+00
11  6 0.00000000E+00 0.00000000E+00 0.00000000E+00 1.45647608E-01 8.72227171E-02
11  7-3.83319651E-01 3.80057305E-02-2.25396627E-11 0.00000000E+00 5.11687038E-02
11  8 5.25226189E-11 0.00000000E+00-1.52855548E-01-3.67874909E-11 0.00000000E+00
11  9 1.43451207E-01 0.00000000E+00 0.00000000E+00-5.46196916E-02 6.99241668E-02
11 10 6.99241668E-02 5.42471776E-02 0.00000000E+00 0.00000000E+00 0.00000000E+00
11 11 2.32407601E-03 2.32407601E-03 2.16067675E-02 0.00000000E+00 0.00000000E+00
11 12 0.00000000E+00
12  1 0.00000000E+00 0.00000000E+00 0.00000000E+00 0.00000000E+00-1.08332086E-02
12  2 1.38436241E-01 0.00000000E+00-3.75710351E-02 4.80115642E-01 0.00000000E+00
12  3 5.86045665E-02-7.48900555E-01 0.00000000E+00-5.73087135E-02 7.32341009E-01
12  4 0.00000000E+00 0.00000000E+00 0.00000000E+00 0.00000000E+00-2.30340841E-10
12  5 5.31561577E-02-6.79276009E-01 0.00000000E+00 0.00000000E+00 0.00000000E+00
12  6 4.61669825E-11 1.35761060E-02-1.73487390E-01 0.00000000E+00 0.00000000E+00
12  7 0.00000000E+00 0.00000000E+00 9.67067326E-05-1.23580345E-03 0.00000000E+00
12  8-2.79031707E-04 3.56571189E-03 0.00000000E+00 2.48684751E-04-3.17791188E-03
12  9 0.00000000E+00-8.13917527E-05 1.04009520E-03 0.00000000E+00 0.00000000E+00
12 10 0.00000000E+00 0.00000000E+00 3.06228413E-11-1.43788572E-05 1.83745647E-04
12 11 0.00000000E+00 0.00000000E+00 0.00000000E+00 0.00000000E+00 1.72716642E-05
12 12-2.20712470E-04
13  1 0.00000000E+00 0.00000000E+00 0.00000000E+00 0.00000000E+00 1.38436241E-01
13  2 1.08332086E-02 0.00000000E+00 4.80115642E-01 3.75710351E-02 0.00000000E+00
13  3-7.48900555E-01-5.86045665E-02 0.00000000E+00 7.32341009E-01 5.73087135E-02
13  4 0.00000000E+00 0.00000000E+00 0.00000000E+00 0.00000000E+00-1.10056219E-10
13  5-6.79276009E-01-5.31561577E-02 0.00000000E+00 0.00000000E+00 0.00000000E+00
13  6 1.46476294E-10-1.73487390E-01-1.35761060E-02 0.00000000E+00 0.00000000E+00
13  7 0.00000000E+00 0.00000000E+00-1.23580345E-03-9.67067327E-05 0.00000000E+00
13  8 3.56571189E-03 2.79031706E-04 0.00000000E+00-3.17791188E-03-2.48684751E-04
13  9 0.00000000E+00 1.04009520E-03 8.13917521E-05 0.00000000E+00 0.00000000E+00
13 10 0.00000000E+00 0.00000000E+00-3.75949163E-11 1.83745647E-04 1.43788568E-05
13 11 0.00000000E+00 0.00000000E+00 0.00000000E+00 5.73463538E-11-2.20712470E-04
13 12-1.72716635E-05
14  1-2.12559630E+00-3.85353873E+01 5.44205442E+01 2.20960980E-01 0.00000000E+00
14  2 0.00000000E+00-8.82262626E-01 1.40565812E-11 0.00000000E+00 1.72828104E+00
14  3 0.00000000E+00 0.00000000E+00-1.08258458E+00 0.00000000E+00 0.00000000E+00
14  4 1.69184408E-01-2.54585353E+00-2.54585353E+00-3.09005791E+00 0.00000000E+00
14  5 0.00000000E+00 0.00000000E+00-5.55335540E+00-5.55335540E+00-5.04754018E+00
14  6 0.00000000E+00 0.00000000E+00 0.00000000E+00 1.04566807E+01 5.67346644E+01
14  7-9.38389487E+01 5.92588491E-01 0.00000000E+00 0.00000000E+00 2.52400399E-01
14  8 0.00000000E+00 0.00000000E+00-9.02842357E-01 0.00000000E+00 0.00000000E+00
14  9 1.20016202E+00 0.00000000E+00 0.00000000E+00-1.10700729E+00 7.38154343E+00
14 10 7.38154343E+00 6.68766344E+00 0.00000000E+00 0.00000000E+00 0.00000000E+00
14 11 7.86887887E+00 7.86887887E+00 8.83153066E+00 0.00000000E+00 0.00000000E+00
14 12 0.00000000E+00
15  1 0.00000000E+00 0.00000000E+00 0.00000000E+00 0.00000000E+00-4.48672423E-09
15  2-4.96369724E-09 0.00000000E+00 2.18160735E-08 2.64458381E-08 0.00000000E+00
15  3-2.25231767E-08-2.79612976E-08 0.00000000E+00 6.42746959E-09 8.06354784E-09
15  4 0.00000000E+00 3.58181601E-03-3.58181601E-03 0.00000000E+00-3.04366510E+00
15  5 6.98606288E-10 9.70163969E-10-3.18129490E-03 3.18129490E-03 0.00000000E+00
15  6 2.70332039E+00-1.67342887E-10-2.07909364E-10 0.00000000E+00 0.00000000E+00
15  7 0.00000000E+00 0.00000000E+00 1.75846170E-10 0.00000000E+00 0.00000000E+00
15  8-4.68111388E-10-1.54585623E-10 0.00000000E+00 4.19642878E-10 2.75990095E-10
15  9 0.00000000E+00-1.28428493E-10-7.77261760E-11 0.00000000E+00 5.83233200E-11
15 10-5.83756328E-11 0.00000000E+00 1.36223688E-07-2.89176546E-11 2.06022976E-11
15 11-6.58048424E-11 6.57357145E-11 0.00000000E+00-1.60758509E-07 2.08583735E-11
15 12-3.12111166E-11
16  1 0.00000000E+00 0.00000000E+00 0.00000000E+00 0.00000000E+00 0.00000000E+00
16  2 0.00000000E+00 0.00000000E+00-2.96582739E-11-3.58921835E-11 0.00000000E+00
16  3 3.06195840E-11 3.79481734E-11 0.00000000E+00 0.00000000E+00-1.09434467E-11
16  4 0.00000000E+00 2.63589129E+00-2.63589129E+00 0.00000000E+00 4.13592488E-03
16  5 0.00000000E+00 0.00000000E+00-2.34114413E+00 2.34114413E+00 0.00000000E+00
16  6-3.67344293E-03 0.00000000E+00 0.00000000E+00 0.00000000E+00 0.00000000E+00
16  7 0.00000000E+00 0.00000000E+00 0.00000000E+00 0.00000000E+00 0.00000000E+00
16  8 0.00000000E+00 0.00000000E+00 0.00000000E+00 0.00000000E+00 0.00000000E+00
16  9 0.00000000E+00 0.00000000E+00 0.00000000E+00 0.00000000E+00 4.29407241E-08
16 10-4.29389705E-08 0.00000000E+00-1.85109366E-10 0.00000000E+00 0.00000000E+00
16 11-4.84016966E-08 4.84001507E-08 0.00000000E+00 2.18448824E-10 0.00000000E+00
16 12 0.00000000E+00
17  1-9.71589389E+00 3.14410279E+01-2.31102580E+01-7.17678639E-01 0.00000000E+00
17  2 0.00000000E+00 2.59126085E+00-1.20507127E-11 0.00000000E+00-5.97399634E+00
17  3 0.00000000E+00 0.00000000E+00 4.24453097E+00 0.00000000E+00 0.00000000E+00
17  4-9.07588775E-01-3.63341356E+00-3.63341356E+00-1.50618935E+00 0.00000000E+00
17  5 0.00000000E+00 0.00000000E+00 4.86275940E+00 4.86275940E+00 3.04051129E+00
17  6 0.00000000E+00 0.00000000E+00 0.00000000E+00 4.01861023E+00 2.54920977E+01
17  7-4.08984867E+01 5.54973171E-02 1.69497046E-11 0.00000000E+00-1.78524994E-01
17  8-3.93513283E-11 0.00000000E+00 4.91792561E-01 2.74216934E-11 0.00000000E+00
17  9-3.16271904E-01 0.00000000E+00 0.00000000E+00-2.05460201E-01 3.00378962E+00
17 10 3.00378962E+00 2.74875744E+00 0.00000000E+00 0.00000000E+00 0.00000000E+00
17 11 3.59734189E+00 3.59734189E+00 3.97472355E+00 0.00000000E+00 0.00000000E+00
17 12 0.00000000E+00
18  1 0.00000000E+00 0.00000000E+00 0.00000000E+00 0.00000000E+00-2.42880876E-01
18  2 1.62272012E+00 0.00000000E+00 1.24113513E+00-8.29219240E+00 0.00000000E+00
18  3-1.30049700E+00 8.68879710E+00 0.00000000E+00 3.76071400E-01-2.51258410E+00
18  4 0.00000000E+00 0.00000000E+00 0.00000000E+00 0.00000000E+00-8.66145402E-09
18  5 4.28759327E-02-2.86459930E-01 0.00000000E+00 0.00000000E+00 0.00000000E+00
18  6 7.72477219E-09-1.24236152E-02 8.30038608E-02 0.00000000E+00 0.00000000E+00
18  7 0.00000000E+00 0.00000000E+00-8.95334615E-04 5.98185216E-03 0.00000000E+00
18  8 2.60906739E-03-1.74315336E-02 0.00000000E+00-2.37182089E-03 1.58464575E-02
18  9 0.00000000E+00 8.46178439E-04-5.65343308E-03 0.00000000E+00 0.00000000E+00
18 10 0.00000000E+00 0.00000000E+00 3.61293627E-10 1.97727683E-04-1.32104551E-03
18 11 0.00000000E+00 0.00000000E+00 0.00000000E+00-4.29231276E-10-2.48677173E-04
18 12 1.66144597E-03
19  1 0.00000000E+00 0.00000000E+00 0.00000000E+00 0.00000000E+00 1.62272012E+00
19  2 2.42880876E-01 0.00000000E+00-8.29219240E+00-1.24113513E+00 2.16801367E-11
19  3 8.68879710E+00 1.30049700E+00-1.52570681E-11-2.51258410E+00-3.76071400E-01
19  4 0.00000000E+00 0.00000000E+00 0.00000000E+00 0.00000000E+00-9.03425789E-09
19  5-2.86459930E-01-4.28759327E-02 0.00000000E+00 0.00000000E+00 0.00000000E+00
19  6 8.04541926E-09 8.30038608E-02 1.24236152E-02 0.00000000E+00 0.00000000E+00
19  7 0.00000000E+00 0.00000000E+00 5.98185216E-03 8.95334611E-04 0.00000000E+00
19  8-1.74315336E-02-2.60906738E-03 0.00000000E+00 1.58464575E-02 2.37182089E-03
19  9 0.00000000E+00-5.65343308E-03-8.46178438E-04 0.00000000E+00 0.00000000E+00
19 10 0.00000000E+00 0.00000000E+00 1.27668539E-10-1.32104551E-03-1.97727683E-04
19 11 0.00000000E+00 0.00000000E+00 0.00000000E+00-2.67608979E-10 1.66144597E-03
19 12 2.48677173E-04
20  1-7.61129546E+00-4.55101957E+00 2.00459992E+01-3.60011429E-01 0.00000000E+00
20  2 0.00000000E+00 2.51109576E+00-1.15349279E-11 0.00000000E+00-4.87098893E+00
20  3 0.00000000E+00 0.00000000E+00 3.32073199E+00 0.00000000E+00 0.00000000E+00
20  4-3.71735106E-01-2.71222622E+00-2.71222622E+00-4.96770117E+00 0.00000000E+00
20  5 0.00000000E+00 0.00000000E+00-1.42095613E+00-1.42095613E+00-9.09016716E-02
20  6 0.00000000E+00 0.00000000E+00 0.00000000E+00 7.21900767E-01 5.76273801E+00
20  7-8.90508024E+00-1.60120571E-02 1.52030658E-11 0.00000000E+00-1.00804773E-01
20  8-3.53750903E-11 0.00000000E+00 2.99134355E-01 2.47216871E-11 0.00000000E+00
20  9-2.46641763E-01 0.00000000E+00 0.00000000E+00-6.90536641E-03 6.02121613E-01
20 10 6.02121613E-01 5.37991993E-01 0.00000000E+00 0.00000000E+00 0.00000000E+00
20 11 8.16199132E-01 8.16199132E-01 9.17955759E-01 0.00000000E+00 0.00000000E+00
20 12 0.00000000E+00
21  1 1.02947070E+01 4.60255177E+01-7.95289479E+01 5.66336955E-02 0.00000000E+00
21  2 0.00000000E+00-3.67187738E-01 0.00000000E+00 0.00000000E+00 1.06512273E+00
21  3 0.00000000E+00 0.00000000E+00-9.23624095E-01 0.00000000E+00 0.00000000E+00
21  4 2.33192538E-01 6.87333480E+00 6.87333480E+00 6.71962927E+00 0.00000000E+00
21  5 0.00000000E+00 0.00000000E+00 6.47404629E+00 6.47404629E+00 6.66232071E+00
21  6 0.00000000E+00 0.00000000E+00 0.00000000E+00-1.32485212E+01-4.87440728E+01
21  7 8.84413435E+01-8.60430460E-01 0.00000000E+00 0.00000000E+00-1.50107816E+00
21  8 0.00000000E+00 0.00000000E+00 5.03296355E+00 0.00000000E+00 0.00000000E+00
21  9-5.15266104E+00 0.00000000E+00 0.00000000E+00 1.36540266E+00-7.98608098E+00
21 10-7.98608098E+00-8.05349113E+00 0.00000000E+00 0.00000000E+00 0.00000000E+00
21 11-6.83930043E+00-6.83930043E+00-6.42355137E+00 0.00000000E+00 0.00000000E+00
21 12 0.00000000E+00
22  1 0.00000000E+00 0.00000000E+00 0.00000000E+00 0.00000000E+00-1.68555889E+00
22  2 1.35890011E+00 0.00000000E+00 2.77411442E+00-2.23649522E+00 0.00000000E+00
22  3-1.74187129E+00 1.40429925E+00 0.00000000E+00 6.50257162E-01-5.24238303E-01
22  4 0.00000000E+00 0.00000000E+00 0.00000000E+00 0.00000000E+00 6.82790244E-11
22  5 2.00570290E+00-1.61700070E+00 0.00000000E+00 0.00000000E+00 0.00000000E+00
22  6-7.11040148E-11-1.97467058E+00 1.59198239E+00 0.00000000E+00 0.00000000E+00
22  7 0.00000000E+00 0.00000000E+00-8.71958004E-04 7.02973855E-04 0.00000000E+00
22  8 2.39966713E-03-1.93461525E-03 0.00000000E+00-2.70542489E-03 2.18111762E-03
22  9 0.00000000E+00 2.97492408E-03-2.39838827E-03 0.00000000E+00 0.00000000E+00
22 10 0.00000000E+00 0.00000000E+00 5.45500657E-11 2.08204830E-03-1.67855047E-03
22 11 0.00000000E+00 0.00000000E+00 0.00000000E+00-7.97780398E-11-3.08103354E-03
22 12 2.48393388E-03
23  1 0.00000000E+00 0.00000000E+00 0.00000000E+00 0.00000000E+00-1.35890011E+00
23  2-1.68555889E+00 0.00000000E+00 2.23649522E+00 2.77411442E+00 0.00000000E+00
23  3-1.40429925E+00-1.74187129E+00 0.00000000E+00 5.24238303E-01 6.50257162E-01
23  4 0.00000000E+00 0.00000000E+00 0.00000000E+00 0.00000000E+00-8.79855783E-11
23  5 1.61700070E+00 2.00570290E+00 0.00000000E+00 0.00000000E+00 0.00000000E+00
23  6 5.37579546E-11-1.59198239E+00-1.97467058E+00 0.00000000E+00 0.00000000E+00
23  7 0.00000000E+00 0.00000000E+00-7.02973854E-04-8.71958002E-04 0.00000000E+00
23  8 1.93461525E-03 2.39966712E-03 0.00000000E+00-2.18111762E-03-2.70542489E-03
23  9 0.00000000E+00 2.39838827E-03 2.97492408E-03 0.00000000E+00 0.00000000E+00
23 10 0.00000000E+00 0.00000000E+00 0.00000000E+00 1.67855047E-03 2.08204830E-03
23 11 0.00000000E+00 0.00000000E+00 0.00000000E+00-2.54994338E-11-2.48393388E-03
23 12-3.08103354E-03
24  1 0.00000000E+00 0.00000000E+00 0.00000000E+00 0.00000000E+00-1.03230400E-03
24  2 8.99771645E-04 0.00000000E+00-1.92427816E-03 1.67722969E-03 0.00000000E+00
24  3 5.96767563E-03-5.20151555E-03 0.00000000E+00-4.06721984E-03 3.54504979E-03
24  4 0.00000000E+00 0.00000000E+00 0.00000000E+00 0.00000000E+00-7.38079556E-11
24  5-6.65524740E-03 5.80081342E-03 0.00000000E+00 0.00000000E+00 0.00000000E+00
24  6 1.71965062E-11 6.42380978E-03-5.59908892E-03 0.00000000E+00 0.00000000E+00
24  7 0.00000000E+00 0.00000000E+00 3.32990321E-01-2.90239356E-01 0.00000000E+00
24  8-1.08967619E+00 9.49778108E-01 0.00000000E+00 8.64164823E-01-7.53219017E-01
24  9 0.00000000E+00 4.51007381E-01-3.93104796E-01 0.00000000E+00 0.00000000E+00
24 10 0.00000000E+00 0.00000000E+00 2.29925170E-10 6.26294507E-01-5.45887683E-01
24 11 0.00000000E+00 0.00000000E+00 0.00000000E+00-3.82049403E-10-9.86628343E-01
24 12 8.59960057E-01
25  1 0.00000000E+00 0.00000000E+00 0.00000000E+00 0.00000000E+00 8.99771647E-04
25  2 1.03230400E-03 0.00000000E+00 1.67722969E-03 1.92427815E-03 0.00000000E+00
25  3-5.20151555E-03-5.96767562E-03 0.00000000E+00 3.54504979E-03 4.06721983E-03
25  4 0.00000000E+00 0.00000000E+00 0.00000000E+00 0.00000000E+00-7.05299725E-11
25  5 5.80081342E-03 6.65524740E-03 0.00000000E+00 0.00000000E+00 0.00000000E+00
25  6 7.38462797E-11-5.59908892E-03-6.42380978E-03 0.00000000E+00 0.00000000E+00
25  7 0.00000000E+00 0.00000000E+00-2.90239356E-01-3.32990321E-01 0.00000000E+00
25  8 9.49778108E-01 1.08967619E+00 0.00000000E+00-7.53219017E-01-8.64164823E-01
25  9 0.00000000E+00-3.93104796E-01-4.51007381E-01 0.00000000E+00 0.00000000E+00
25 10 0.00000000E+00 0.00000000E+00 6.15126294E-11-5.45887683E-01-6.26294507E-01
25 11 0.00000000E+00 0.00000000E+00 0.00000000E+00 7.09497929E-11 8.59960057E-01
25 12 9.86628343E-01
26  1-4.49221032E+00 6.48351049E+01-7.89074381E+01-5.73323962E-01 0.00000000E+00
26  2 0.00000000E+00 5.01088203E+00-1.67226072E-11 0.00000000E+00-7.87287414E+00
26  3 1.05246899E-11 0.00000000E+00 3.33730885E+00 0.00000000E+00 0.00000000E+00
26  4-2.77368666E-01 3.35670342E+00 3.35670342E+00 2.26618450E+00 0.00000000E+00
26  5 0.00000000E+00 0.00000000E+00 7.48211405E+00 7.48211405E+00 8.89885844E+00
26  6 0.00000000E+00 0.00000000E+00 0.00000000E+00 2.26053906E+00 1.53476887E+01
26  7-2.43930100E+01-1.29440491E-02 1.91289792E-11 0.00000000E+00-1.48197688E-01
26  8-4.44065213E-11 0.00000000E+00 3.47995604E-01 3.09167070E-11 0.00000000E+00
26  9-1.30291409E-01 0.00000000E+00 0.00000000E+00-5.09553957E-02 1.73037663E+00
26 10 1.73037663E+00 1.64606447E+00 0.00000000E+00 0.00000000E+00 0.00000000E+00
26 11 2.17583145E+00 2.17583145E+00 2.24636307E+00 0.00000000E+00 0.00000000E+00
26 12 0.00000000E+00
27  1-1.37372054E+01-7.68792490E+01 1.26372283E+02 1.04233581E-01 0.00000000E+00
27  2 0.00000000E+00 5.93258317E-01 0.00000000E+00 0.00000000E+00-9.06824853E-01
27  3 0.00000000E+00 0.00000000E+00 3.90492214E-01 0.00000000E+00 0.00000000E+00
27  4-6.07270137E-02-9.81992131E+00-9.81992131E+00-9.95205192E+00 0.00000000E+00
27  5 0.00000000E+00 0.00000000E+00-1.08796650E+01-1.08796650E+01-1.07090327E+01
27  6 0.00000000E+00 0.00000000E+00 0.00000000E+00 5.38678155E+00-1.09251084E+01
27  7 5.41941383E+00 6.56929502E-01 0.00000000E+00 0.00000000E+00 2.24550448E+00
27  8 0.00000000E+00 0.00000000E+00-6.72264255E+00 0.00000000E+00 0.00000000E+00
27  9 5.02175609E+00 0.00000000E+00 0.00000000E+00-7.31161782E-01 1.40117105E+00
27 10 1.40117105E+00 2.50225187E+00 0.00000000E+00 0.00000000E+00 0.00000000E+00
27 11-1.18508805E+00-1.18508805E+00-2.57225969E+00 0.00000000E+00 0.00000000E+00
27 12 0.00000000E+00
28  1 0.00000000E+00 0.00000000E+00 0.00000000E+00 0.00000000E+00 6.45822517E+00
28  2-6.49836601E+00-1.09447295E-11-1.35384779E+01 1.36226258E+01 3.04009682E-11
28  3 8.51911215E+00-8.57206234E+00-1.77889446E-11-1.20523974E+00 1.21273086E+00
28  4 0.00000000E+00 0.00000000E+00 0.00000000E+00 0.00000000E+00-1.68814005E-10