!
! NEO PROPERTIES TEST FOR THE CLOSED SHELL SPECIES [CLHCL]^-
! HERE THE QUANTUM PROTON IS REPRESENTED BY TWO BASIS FUNCTION CENTERS.
! THE NUCLEAR POPULATION ANALYSIS IS USEFUL IN THIS SITUATION TO 
! IDENTIFY WHETHER THE PROTON DENSITY IS DELOCALIZED OVER CENTERS OR
! LOCALIZED ON A PARTICLUAR CENTER. THIS EXAMPLE USES DELOCALIZED
! ELECTRONIC MOLECULAR ORBITALS AS A GUESS WHICH LEADS TO DELOCALIZED
! NUCLEAR ORBITALS. 
!
!..... NUCLEAR POPULATION ANALYSES .....
!
!    MULLIKEN ATOMIC POPULATION IN EACH NUC MOLECULAR ORBITAL
!
!                     1
!
!                 1.000000
!
!   3             0.500000
!   4             0.500000
!
!
!         ----- MULLIKEN NUCLEI OVERLAP POPULATIONS -----
!         (OFF-DIAGONAL ELEMENTS NEED TO BE MULTIPLIED BY 2)
!
!            3           4
!
!   3    0.4610333
!   4    0.0389667   0.4610333
!
!         TOTAL MULLIKEN AND LOWDIN NUC ATOMIC POPULATIONS
!      NUC          MULL.POP.    CHARGE          LOW.POP.     CHARGE
!   3 PROTON        0.500000    0.090292         0.500000   -0.001415
!   4 PROTON        0.500000    0.090292         0.500000   -0.001415
!
!
!-------------------------------------------------------------------------
 $CONTRL SCFTYP=RHF RUNTYP=ENERGY ICHARG=-1 MULT=1 $END
 $SYSTEM TIMLIM=3000 MEMORY=20000000 $END
 $SCF SOSCF=.F. DIIS=.T. ETHRSH=1.5  $END
 $NEO  NEOSCF=DIAGZN BASNUC=DZSPNB NUNIQN=1 IUNIQN(1)=3 
       NTAUXB=1 IAUXNB(1)=4 NAUXNB=1
       NUMULT=2 EXCH=.T.   $END
 $BASIS  GBASIS=N31 NGAUSS=4 $END
 $GUESS  GUESS=MOREAD NORB=30 $END
 $DATA
 --- [ClHHCL]- 3.34 NEO-ROHF DZSPNB *** symm delocalized electronic density ***
 C1       0
  CL         17.0      0.0000000000      0.0000000000      1.6700000000
  CL         17.0      0.0000000000      0.0000000000     -1.6700000000
  H           1.0      0.0000000000      0.0000000000      0.20
  H           1.0      0.0000000000      0.0000000000     -0.20
 $END
--- CLOSED SHELL ORBITALS --- GENERATED AT Mon Aug 13 15:27:45 2007
 --- [ClHHCL]- 3.34 NEO-ROHF DZSPNB *** symm delocalized electronic density *** 
E(RHF)=     -918.7384859323, E(NUC)=   68.9719127731,    9 ITERS
 $VEC   
 1  1 7.01081423E-01 2.01672869E-02 0.00000000E+00 0.00000000E+00-9.07978176E-05
 1  2-8.71421597E-03 0.00000000E+00 0.00000000E+00 3.40785035E-04 9.41462514E-03
 1  3 0.00000000E+00 0.00000000E+00-3.18636304E-03-7.01081423E-01-2.01672869E-02
 1  4 0.00000000E+00 0.00000000E+00-9.07978176E-05 8.71421597E-03 0.00000000E+00
 1  5 0.00000000E+00 3.40785035E-04-9.41462514E-03 0.00000000E+00 0.00000000E+00
 1  6-3.18636304E-03 6.09355299E-04-2.41091684E-02-6.09355299E-04 2.41091684E-02
 2  1 7.01110191E-01 2.03687215E-02 0.00000000E+00 0.00000000E+00-1.02059360E-04
 2  2-7.98868131E-03 0.00000000E+00 0.00000000E+00 3.90267962E-04 5.49786429E-03
 2  3 0.00000000E+00 0.00000000E+00-1.43390660E-03 7.01110191E-01 2.03687215E-02
 2  4 0.00000000E+00 0.00000000E+00 1.02059360E-04-7.98868131E-03 0.00000000E+00
 2  5 0.00000000E+00-3.90267962E-04 5.49786429E-03 0.00000000E+00 0.00000000E+00
 2  6 1.43390660E-03 1.60251804E-04-1.67576537E-03 1.60251804E-04-1.67576537E-03
 3  1 2.01563185E-01-7.23760603E-01 0.00000000E+00 0.00000000E+00 5.17157877E-03
 3  2-6.15249799E-02 0.00000000E+00 0.00000000E+00 2.47593919E-03 4.50399127E-02
 3  3 0.00000000E+00 0.00000000E+00-1.53276558E-02-2.01563185E-01 7.23760603E-01
 3  4 0.00000000E+00 0.00000000E+00 5.17157877E-03 6.15249799E-02 0.00000000E+00
 3  5 0.00000000E+00 2.47593919E-03-4.50399127E-02 0.00000000E+00 0.00000000E+00
 3  6-1.53276558E-02 2.66392069E-03-1.14241151E-01-2.66392069E-03 1.14241151E-01
 4  1-2.01702626E-01 7.22798069E-01 0.00000000E+00 0.00000000E+00-5.15427707E-03
 4  2 5.80602935E-02 0.00000000E+00 0.00000000E+00-2.59894686E-03-2.63642706E-02
 4  3 0.00000000E+00 0.00000000E+00 6.86164982E-03-2.01702626E-01 7.22798069E-01
 4  4 0.00000000E+00 0.00000000E+00 5.15427707E-03 5.80602935E-02 0.00000000E+00
 4  5 0.00000000E+00 2.59894686E-03-2.63642706E-02 0.00000000E+00 0.00000000E+00
 4  6-6.86164982E-03-7.33673446E-04 7.82819841E-03-7.33673446E-04 7.82819840E-03
 5  1-1.75281263E-03 5.75596354E-03 0.00000000E+00 0.00000000E+00 6.92599997E-01
 5  2-1.73639988E-03 0.00000000E+00 0.00000000E+00 4.26464458E-02 3.68784656E-03
 5  3 0.00000000E+00 0.00000000E+00-1.20628506E-02 1.75281263E-03-5.75596354E-03
 5  4 0.00000000E+00 0.00000000E+00 6.92599997E-01 1.73639988E-03 0.00000000E+00
 5  5 0.00000000E+00 4.26464458E-02-3.68784656E-03 0.00000000E+00 0.00000000E+00
 5  6-1.20628506E-02 2.12296946E-03-1.16912376E-02-2.12296946E-03 1.16912376E-02
 6  1 1.79186066E-03-5.45786486E-03 0.00000000E+00 0.00000000E+00-6.92627510E-01
 6  2 2.75881620E-03 0.00000000E+00 0.00000000E+00-4.27507396E-02-6.06219810E-03
 6  3 0.00000000E+00 0.00000000E+00 1.38475208E-02 1.79186066E-03-5.45786486E-03
 6  4 0.00000000E+00 0.00000000E+00 6.92627510E-01 2.75881620E-03 0.00000000E+00
 6  5 0.00000000E+00 4.27507396E-02-6.06219810E-03 0.00000000E+00 0.00000000E+00
 6  6-1.38475208E-02-3.87242386E-04 5.63093252E-03-3.87242386E-04 5.63093252E-03
 7  1 0.00000000E+00 0.00000000E+00-6.90702921E-01-6.18961021E-02 0.00000000E+00
 7  2 0.00000000E+00-3.97283290E-02-3.56018287E-03 0.00000000E+00 0.00000000E+00
 7  3 8.99149050E-03 8.05756276E-04 0.00000000E+00 0.00000000E+00 0.00000000E+00
 7  4 6.90702922E-01 6.18961021E-02 0.00000000E+00 0.00000000E+00 3.97283290E-02
 7  5 3.56018287E-03 0.00000000E+00 0.00000000E+00-8.99149050E-03-8.05756276E-04
 7  6 0.00000000E+00 0.00000000E+00 0.00000000E+00 0.00000000E+00 0.00000000E+00
 8  1 0.00000000E+00 0.00000000E+00-6.18961021E-02 6.90702922E-01 0.00000000E+00
 8  2 0.00000000E+00-3.56018287E-03 3.97283290E-02 0.00000000E+00 0.00000000E+00
 8  3 8.05756276E-04-8.99149050E-03 0.00000000E+00 0.00000000E+00 0.00000000E+00
 8  4 6.18961021E-02-6.90702921E-01 0.00000000E+00 0.00000000E+00 3.56018286E-03
 8  5-3.97283290E-02 0.00000000E+00 0.00000000E+00-8.05756275E-04 8.99149050E-03
 8  6 0.00000000E+00 0.00000000E+00 0.00000000E+00 0.00000000E+00 0.00000000E+00
 9  1 0.00000000E+00 0.00000000E+00 6.84068491E-01-1.14072403E-01 0.00000000E+00
 9  2 0.00000000E+00 3.91240714E-02-6.52416666E-03 0.00000000E+00 0.00000000E+00
 9  3-8.53532131E-03 1.42331452E-03 0.00000000E+00 0.00000000E+00 0.00000000E+00
 9  4 6.84068491E-01-1.14072403E-01 0.00000000E+00 0.00000000E+00 3.91240714E-02
 9  5-6.52416666E-03 0.00000000E+00 0.00000000E+00-8.53532131E-03 1.42331452E-03
 9  6 0.00000000E+00 0.00000000E+00 0.00000000E+00 0.00000000E+00 0.00000000E+00
10  1 0.00000000E+00 0.00000000E+00 1.14072403E-01 6.84068491E-01 0.00000000E+00
10  2 0.00000000E+00 6.52416666E-03 3.91240714E-02 0.00000000E+00 0.00000000E+00
10  3-1.42331452E-03-8.53532131E-03 0.00000000E+00 0.00000000E+00 0.00000000E+00
10  4 1.14072403E-01 6.84068491E-01 0.00000000E+00 0.00000000E+00 6.52416666E-03
10  5 3.91240714E-02 0.00000000E+00 0.00000000E+00-1.42331452E-03-8.53532131E-03
10  6 0.00000000E+00 0.00000000E+00 0.00000000E+00 0.00000000E+00 0.00000000E+00
11  1 4.63044555E-02-1.89978902E-01 0.00000000E+00 0.00000000E+00 3.74047134E-02
11  2 2.32996285E-01 0.00000000E+00 0.00000000E+00-6.87194112E-02 3.18259183E-01
11  3 0.00000000E+00 0.00000000E+00-4.31630098E-02 4.63044555E-02-1.89978902E-01
11  4 0.00000000E+00 0.00000000E+00-3.74047134E-02 2.32996285E-01 0.00000000E+00
11  5 0.00000000E+00 6.87194112E-02 3.18259183E-01 0.00000000E+00 0.00000000E+00
11  6 4.31630098E-02 2.25999854E-01 4.02531048E-02 2.25999854E-01 4.02531048E-02
12  1-6.08346325E-02 2.52337674E-01 0.00000000E+00 0.00000000E+00-1.42271352E-02
12  2-3.05438058E-01 0.00000000E+00 0.00000000E+00 2.54831327E-02-4.58659088E-01
12  3 0.00000000E+00 0.00000000E+00 2.94969541E-02 6.08346325E-02-2.52337674E-01
12  4 0.00000000E+00 0.00000000E+00-1.42271352E-02 3.05438058E-01 0.00000000E+00
12  5 0.00000000E+00 2.54831327E-02 4.58659088E-01 0.00000000E+00 0.00000000E+00
12  6 2.94969541E-02-5.88034580E-02 5.35658259E-03 5.88034580E-02-5.35658259E-03
13  1 4.02428555E-02-1.72709788E-01 0.00000000E+00 0.00000000E+00-7.54525057E-02
13  2 1.97780881E-01 0.00000000E+00 0.00000000E+00 1.44895801E-01 3.84532323E-01
13  3 0.00000000E+00 0.00000000E+00 7.91579890E-02 4.02428555E-02-1.72709788E-01
13  4 0.00000000E+00 0.00000000E+00 7.54525057E-02 1.97780881E-01 0.00000000E+00
13  5 0.00000000E+00-1.44895801E-01 3.84532323E-01 0.00000000E+00 0.00000000E+00
13  6-7.91579890E-02-2.92633721E-01-1.22233717E-01-2.92633721E-01-1.22233717E-01
14  1 0.00000000E+00 0.00000000E+00-1.89379882E-01-3.57190909E-02 0.00000000E+00
14  2 0.00000000E+00 3.67246791E-01 6.92667105E-02 0.00000000E+00 0.00000000E+00
14  3 4.15783452E-01 7.84212490E-02 0.00000000E+00 0.00000000E+00 0.00000000E+00
14  4-1.89379882E-01-3.57190909E-02 0.00000000E+00 0.00000000E+00 3.67246791E-01
14  5 6.92667105E-02 0.00000000E+00 0.00000000E+00 4.15783452E-01 7.84212490E-02
14  6 0.00000000E+00 0.00000000E+00 0.00000000E+00 0.00000000E+00 0.00000000E+00
15  1 0.00000000E+00 0.00000000E+00 3.57190909E-02-1.89379882E-01 0.00000000E+00
15  2 0.00000000E+00-6.92667105E-02 3.67246791E-01 0.00000000E+00 0.00000000E+00
15  3-7.84212490E-02 4.15783452E-01 0.00000000E+00 0.00000000E+00 0.00000000E+00
15  4 3.57190909E-02-1.89379882E-01 0.00000000E+00 0.00000000E+00-6.92667105E-02
15  5 3.67246791E-01 0.00000000E+00 0.00000000E+00-7.84212490E-02 4.15783452E-01
15  6 0.00000000E+00 0.00000000E+00 0.00000000E+00 0.00000000E+00 0.00000000E+00
16  1 0.00000000E+00 0.00000000E+00 1.63577681E-01-1.07751205E-01 0.00000000E+00
16  2 0.00000000E+00-3.19637632E-01 2.10550362E-01 0.00000000E+00 0.00000000E+00
16  3-3.51358418E-01 2.31445346E-01 0.00000000E+00 0.00000000E+00 0.00000000E+00
16  4-1.63577681E-01 1.07751205E-01 0.00000000E+00 0.00000000E+00 3.19637632E-01
16  5-2.10550362E-01 0.00000000E+00 0.00000000E+00 3.51358418E-01-2.31445346E-01
16  6 0.00000000E+00 0.00000000E+00 0.00000000E+00 0.00000000E+00 0.00000000E+00
17  1 0.00000000E+00 0.00000000E+00-1.07751205E-01-1.63577681E-01 0.00000000E+00
17  2 0.00000000E+00 2.10550362E-01 3.19637632E-01 0.00000000E+00 0.00000000E+00
17  3 2.31445346E-01 3.51358418E-01 0.00000000E+00 0.00000000E+00 0.00000000E+00
17  4 1.07751205E-01 1.63577681E-01 0.00000000E+00 0.00000000E+00-2.10550362E-01
17  5-3.19637632E-01 0.00000000E+00 0.00000000E+00-2.31445346E-01-3.51358418E-01
17  6 0.00000000E+00 0.00000000E+00 0.00000000E+00 0.00000000E+00 0.00000000E+00
18  1-4.68922774E-03 2.89168074E-02 0.00000000E+00 0.00000000E+00 1.91568689E-01
18  2-9.55682423E-03 0.00000000E+00 0.00000000E+00-3.68213746E-01-1.80077182E-01
18  3 0.00000000E+00 0.00000000E+00-3.36845643E-01 4.68922774E-03-2.89168074E-02
18  4 0.00000000E+00 0.00000000E+00 1.91568689E-01 9.55682423E-03 0.00000000E+00
18  5 0.00000000E+00-3.68213746E-01 1.80077182E-01 0.00000000E+00 0.00000000E+00
18  6-3.36845643E-01 1.35250637E-01 7.24561977E-01-1.35250637E-01-7.24561977E-01
19  1-1.30172496E-02 6.27811320E-02 0.00000000E+00 0.00000000E+00-1.81797660E-01
19  2-5.78480426E-02 0.00000000E+00 0.00000000E+00 3.40299523E-01-2.61737974E-01
19  3 0.00000000E+00 0.00000000E+00 5.96954570E-01-1.30172496E-02 6.27811320E-02
19  4 0.00000000E+00 0.00000000E+00 1.81797660E-01-5.78480426E-02 0.00000000E+00
19  5 0.00000000E+00-3.40299523E-01-2.61737974E-01 0.00000000E+00 0.00000000E+00
19  6-5.96954570E-01 2.72769948E-01 3.09354224E-01 2.72769948E-01 3.09354224E-01
20  1-3.30538970E-02 1.75857476E-01 0.00000000E+00 0.00000000E+00 2.79276639E-02
20  2-1.45790139E-01 0.00000000E+00 0.00000000E+00-1.86376656E-01-2.18184580E+00
20  3 0.00000000E+00 0.00000000E+00 1.76641710E+00 3.30538970E-02-1.75857476E-01
20  4 0.00000000E+00 0.00000000E+00 2.79276639E-02 1.45790139E-01 0.00000000E+00
20  5 0.00000000E+00-1.86376656E-01 2.18184580E+00 0.00000000E+00 0.00000000E+00
20  6 1.76641710E+00 1.01034692E-01 1.28692462E+01-1.01034692E-01-1.28692462E+01
21  1-3.02955600E-02 4.94305986E-02 0.00000000E+00 0.00000000E+00-6.22622863E-03
21  2-3.21107753E-01 0.00000000E+00 0.00000000E+00 2.03110374E-03-2.40050776E-01
21  3 0.00000000E+00 0.00000000E+00 4.20604660E-01-3.02955600E-02 4.94305986E-02
21  4 0.00000000E+00 0.00000000E+00 6.22622863E-03-3.21107753E-01 0.00000000E+00
21  5 0.00000000E+00-2.03110374E-03-2.40050776E-01 0.00000000E+00 0.00000000E+00
21  6-4.20604660E-01-5.75786563E-01 1.00307765E+00-5.75786563E-01 1.00307765E+00
22  1 0.00000000E+00 0.00000000E+00-2.38564859E-01-1.07170787E-01 0.00000000E+00
22  2 0.00000000E+00 8.41692217E-01 3.78114436E-01 0.00000000E+00 0.00000000E+00
22  3-7.56072774E-01-3.39651507E-01 0.00000000E+00 0.00000000E+00 0.00000000E+00
22  4-2.38564859E-01-1.07170787E-01 0.00000000E+00 0.00000000E+00 8.41692217E-01
22  5 3.78114436E-01 0.00000000E+00 0.00000000E+00-7.56072774E-01-3.39651507E-01
22  6 0.00000000E+00 0.00000000E+00 0.00000000E+00 0.00000000E+00 0.00000000E+00
23  1 0.00000000E+00 0.00000000E+00 1.07170787E-01-2.38564859E-01 0.00000000E+00
23  2 0.00000000E+00-3.78114436E-01 8.41692217E-01 0.00000000E+00 0.00000000E+00
23  3 3.39651507E-01-7.56072774E-01 0.00000000E+00 0.00000000E+00 0.00000000E+00
23  4 1.07170787E-01-2.38564859E-01 0.00000000E+00 0.00000000E+00-3.78114436E-01
23  5 8.41692217E-01 0.00000000E+00 0.00000000E+00 3.39651507E-01-7.56072774E-01
23  6 0.00000000E+00 0.00000000E+00 0.00000000E+00 0.00000000E+00 0.00000000E+00
24  1-4.95075522E-02-2.75012231E-02 0.00000000E+00 0.00000000E+00 2.15565682E-01
24  2-7.10099201E-01 0.00000000E+00 0.00000000E+00-7.58980417E-01 7.51375957E-01
24  3 0.00000000E+00 0.00000000E+00 6.48760570E-01-4.95075522E-02-2.75012231E-02
24  4 0.00000000E+00 0.00000000E+00-2.15565682E-01-7.10099201E-01 0.00000000E+00
24  5 0.00000000E+00 7.58980417E-01 7.51375957E-01 0.00000000E+00 0.00000000E+00
24  6-6.48760570E-01 1.53994834E-01-1.11138802E-01 1.53994834E-01-1.11138802E-01
25  1 0.00000000E+00 0.00000000E+00-2.50355917E-01-7.37741265E-02 0.00000000E+00
25  2 0.00000000E+00 8.92783859E-01 2.63082855E-01 0.00000000E+00 0.00000000E+00
25  3-8.26309495E-01-2.43494390E-01 0.00000000E+00 0.00000000E+00 0.00000000E+00
25  4 2.50355917E-01 7.37741265E-02 0.00000000E+00 0.00000000E+00-8.92783859E-01
25  5-2.63082855E-01 0.00000000E+00 0.00000000E+00 8.26309495E-01 2.43494390E-01
25  6 0.00000000E+00 0.00000000E+00 0.00000000E+00 0.00000000E+00 0.00000000E+00
26  1 0.00000000E+00 0.00000000E+00-7.37741265E-02 2.50355917E-01 0.00000000E+00
26  2 0.00000000E+00 2.63082855E-01-8.92783859E-01 0.00000000E+00 0.00000000E+00
26  3-2.43494390E-01 8.26309495E-01 0.00000000E+00 0.00000000E+00 0.00000000E+00
26  4 7.37741265E-02-2.50355917E-01 0.00000000E+00 0.00000000E+00-2.63082855E-01
26  5 8.92783859E-01 0.00000000E+00 0.00000000E+00 2.43494390E-01-8.26309495E-01
26  6 0.00000000E+00 0.00000000E+00 0.00000000E+00 0.00000000E+00 0.00000000E+00
27  1-6.09683460E-03 1.53142017E-02 0.00000000E+00 0.00000000E+00-2.67252561E-01
27  2-5.76828859E-02 0.00000000E+00 0.00000000E+00 9.55504659E-01-2.86361696E-01
27  3 0.00000000E+00 0.00000000E+00-6.84464236E-01 6.09683460E-03-1.53142017E-02
27  4 0.00000000E+00 0.00000000E+00-2.67252561E-01 5.76828859E-02 0.00000000E+00
27  5 0.00000000E+00 9.55504659E-01 2.86361696E-01 0.00000000E+00 0.00000000E+00
27  6-6.84464236E-01-4.96560450E-02 2.13944193E+00 4.96560450E-02-2.13944193E+00
28  1 9.41778201E-02 2.48899059E-01 0.00000000E+00 0.00000000E+00-2.27162237E-03
28  2 1.68371056E+00 0.00000000E+00 0.00000000E+00-9.81673574E-02-4.01144362E+00
28  3 0.00000000E+00 0.00000000E+00 1.75284062E+00-9.41778201E-02-2.48899059E-01
28  4 0.00000000E+00 0.00000000E+00-2.27162237E-03-1.68371056E+00 0.00000000E+00
28  5 0.00000000E+00-9.81673574E-02 4.01144362E+00 0.00000000E+00 0.00000000E+00
28  6 1.75284062E+00 4.01666594E-01 1.27407802E+01-4.01666594E-01-1.27407802E+01
29  1-7.61856350E-02-1.44702369E-01 0.00000000E+00 0.00000000E+00-1.54499309E-01
29  2-1.27128944E+00 0.00000000E+00 0.00000000E+00 6.45388631E-01 2.00642940E+00
29  3 0.00000000E+00 0.00000000E+00-1.32030620E+00-7.61856350E-02-1.44702369E-01
29  4 0.00000000E+00 0.00000000E+00 1.54499309E-01-1.27128944E+00 0.00000000E+00
29  5 0.00000000E+00-6.45388631E-01 2.00642940E+00 0.00000000E+00 0.00000000E+00
29  6 1.32030620E+00 1.40774965E-01-1.16020171E+00 1.40774965E-01-1.16020171E+00
30  1 3.19894651E-02 1.03905295E-01 0.00000000E+00 0.00000000E+00 3.85716240E-02
30  2 6.00022673E-01 0.00000000E+00 0.00000000E+00-9.91177279E-02-2.28539685E+00
30  3 0.00000000E+00 0.00000000E+00 9.76323560E-01-3.19894651E-02-1.03905295E-01
30  4 0.00000000E+00 0.00000000E+00 3.85716240E-02-6.00022673E-01 0.00000000E+00
30  5 0.00000000E+00-9.91177279E-02 2.28539685E+00 0.00000000E+00 0.00000000E+00
30  6 9.76323560E-01-1.77603891E+00 1.07554091E+01 1.77603891E+00-1.07554091E+01
 $END   
