!
! NEO PROPERTIES TEST FOR THE CLOSED SHELL SPECIES [CLHCL]^-
! HERE THE QUANTUM PROTON IS REPRESENTED BY TWO BASIS FUNCTION CENTERS.
! THE NUCLEAR POPULATION ANALYSIS IS USEFUL IN THIS SITUATION TO 
! IDENTIFY WHETHER THE PROTON DENSITY IS DELOCALIZED OVER CENTERS OR
! LOCALIZED ON A PARTICLUAR CENTER. THIS EXAMPLE USES LOCALIZED ELECTRONIC
! MOLECULAR ORBITALS AS A GUESS WHICH LOCALIZES THE NUCLEAR DENSITY DESPITE
! THE APPARENT SYMMETRY.
!
! ..... NUCLEAR POPULATION ANALYSES .....
!
!    MULLIKEN ATOMIC POPULATION IN EACH NUC MOLECULAR ORBITAL
!
!                     1
!
!                 1.000000
!
!   3             0.998276
!   4             0.001724
!
!
!         ----- MULLIKEN NUCLEI OVERLAP POPULATIONS -----
!         (OFF-DIAGONAL ELEMENTS NEED TO BE MULTIPLIED BY 2)
!
!            3           4
!
!   3    0.9968793
!   4    0.0013969   0.0003269
!
!         TOTAL MULLIKEN AND LOWDIN NUC ATOMIC POPULATIONS
!      NUC          MULL.POP.    CHARGE          LOW.POP.     CHARGE
!   3 PROTON        0.998276    0.205607         0.997863    0.430135
!   4 PROTON        0.001724   -0.026651         0.002137   -0.447009
!..... END OF NUCLEAR POPULATION ANALYSES .....
!
!-------------------------------------------------------------------------
 $CONTRL SCFTYP=RHF RUNTYP=ENERGY ICHARG=-1 MULT=1 $END
 $SYSTEM TIMLIM=3000 MEMORY=2000000 $END
 $SCF SOSCF=.F. DIIS=.T. ETHRSH=1.5  $END
 $NEO  NEOSCF=DIAGZN BASNUC=DZSPNB NUNIQN=1 IUNIQN(1)=3 
       NTAUXB=1 IAUXNB(1)=4 NAUXNB=1
       NUMULT=2 EXCH=.T.   $END
 $BASIS  GBASIS=N31 NGAUSS=4 $END
 $GUESS  GUESS=MOREAD NORB=30 $END
 $DATA
 --- [ClHHCL]- 3.34 NEO-ROHF DZSPNB *** localized electronic density ***
 C1       0
  CL         17.0      0.0000000000      0.0000000000      1.6700000000
  CL         17.0      0.0000000000      0.0000000000     -1.6700000000
  H           1.0      0.0000000000      0.0000000000      0.2
  H           1.0      0.0000000000      0.0000000000     -0.2
 $END
--- CLOSED SHELL ORBITALS --- GENERATED AT Mon Aug 13 15:35:40 2007
 --- [ClHHCL]- 3.34 NEO-ROHF DZSPNB *** localized electronic density ***        
E(RHF)=     -918.9311468356, E(NUC)=   68.9493043842,    9 ITERS
 $VEC   
 1  1 9.91486002E-01 2.86120103E-02 0.00000000E+00 0.00000000E+00-1.62625464E-04
 1  2-1.20633935E-02 0.00000000E+00 0.00000000E+00 5.67309069E-04 1.18762652E-02
 1  3 0.00000000E+00 0.00000000E+00-3.78062229E-03-1.01038668E-03 1.22560886E-04
 1  4 0.00000000E+00 0.00000000E+00 7.70309333E-06 5.59886856E-04 0.00000000E+00
 1  5 0.00000000E+00-3.09126931E-05-2.81896151E-03 0.00000000E+00 0.00000000E+00
 1  6-1.30417197E-03 6.96951404E-04-1.61882400E-02-3.53642370E-04 1.26749012E-02
 2  1 1.05304442E-03 1.74924362E-04 0.00000000E+00 0.00000000E+00-8.31797947E-06
 2  2 5.14478829E-04 0.00000000E+00 0.00000000E+00 3.79345217E-05-3.03650854E-03
 2  3 0.00000000E+00 0.00000000E+00 1.27667808E-03 9.91502419E-01 2.86921926E-02
 2  4 0.00000000E+00 0.00000000E+00 1.43121724E-04-1.17069138E-02 0.00000000E+00
 2  5 0.00000000E+00-5.15922443E-04 9.97795207E-03 0.00000000E+00 0.00000000E+00
 2  6 3.02639550E-03-1.49724199E-04 1.14177989E-02 4.27269593E-04-1.30964055E-02
 3  1-2.85078372E-01 1.02307287E+00 0.00000000E+00 0.00000000E+00-9.44508638E-03
 3  2 8.58846579E-02 0.00000000E+00 0.00000000E+00-4.21050187E-03-5.67841779E-02
 3  3 0.00000000E+00 0.00000000E+00 1.82564011E-02 7.17046676E-04-3.66920775E-03
 3  4 0.00000000E+00 0.00000000E+00-3.77255688E-05-2.83713109E-03 0.00000000E+00
 3  5 0.00000000E+00 6.21775944E-05 1.34378367E-02 0.00000000E+00 0.00000000E+00
 3  6 6.28863132E-03-2.93796583E-03 7.63825077E-02 1.44653749E-03-5.98900940E-02
 4  1-9.22527845E-04 2.25054351E-03 0.00000000E+00 0.00000000E+00-1.24765914E-05
 4  2-2.27177846E-03 0.00000000E+00 0.00000000E+00-1.17781652E-04 1.44298718E-02
 4  3 0.00000000E+00 0.00000000E+00-6.15098890E-03-2.85162796E-01 1.02271847E+00
 4  4 0.00000000E+00 0.00000000E+00 8.18000122E-03 8.41468530E-02 0.00000000E+00
 4  5 0.00000000E+00 3.72140137E-03-4.78728452E-02 0.00000000E+00 0.00000000E+00
 4  6-1.46192396E-02 6.78778083E-04-5.43056581E-02-1.92261496E-03 6.21402537E-02
 5  1-3.21643753E-03 1.03518414E-02 0.00000000E+00 0.00000000E+00 9.79379132E-01
 5  2-3.66460623E-03 0.00000000E+00 0.00000000E+00 6.06779543E-02 8.43410968E-03
 5  3 0.00000000E+00 0.00000000E+00-1.88843154E-02-2.55624317E-05-2.01025889E-04
 5  4 0.00000000E+00 0.00000000E+00 4.41687125E-04-6.89786637E-04 0.00000000E+00
 5  5 0.00000000E+00-8.31089495E-05 1.37242553E-03 0.00000000E+00 0.00000000E+00
 5  6 1.13083295E-03 2.49733794E-03-1.32077663E-02-1.30296922E-03 3.90053049E-03
 6  1 0.00000000E+00 0.00000000E+00 2.20152607E-01 9.55676642E-01 0.00000000E+00
 6  2 0.00000000E+00 1.26532172E-02 5.49272812E-02 0.00000000E+00 0.00000000E+00
 6  3-2.81438117E-03-1.22171542E-02 0.00000000E+00 0.00000000E+00 0.00000000E+00
 6  4-8.66322500E-05-3.76068305E-04 0.00000000E+00 0.00000000E+00-4.08598416E-05
 6  5-1.77371491E-04 0.00000000E+00 0.00000000E+00 6.07127176E-05 2.63552301E-04
 6  6 0.00000000E+00 0.00000000E+00 0.00000000E+00 0.00000000E+00 0.00000000E+00
 7  1 0.00000000E+00 0.00000000E+00 9.55676642E-01-2.20152607E-01 0.00000000E+00
 7  2 0.00000000E+00 5.49272812E-02-1.26532172E-02 0.00000000E+00 0.00000000E+00
 7  3-1.22171542E-02 2.81438117E-03 0.00000000E+00 0.00000000E+00 0.00000000E+00
 7  4-3.76068305E-04 8.66322500E-05 0.00000000E+00 0.00000000E+00-1.77371491E-04
 7  5 4.08598416E-05 0.00000000E+00 0.00000000E+00 2.63552301E-04-6.07127176E-05
 7  6 0.00000000E+00 0.00000000E+00 0.00000000E+00 0.00000000E+00 0.00000000E+00
 8  1 2.79495861E-05 2.00698041E-04 0.00000000E+00 0.00000000E+00-4.76284329E-04
 8  2 6.97878500E-04 0.00000000E+00 0.00000000E+00-7.35952113E-05-1.65144188E-03
 8  3 0.00000000E+00 0.00000000E+00 1.23627963E-03 2.77708298E-03-8.88681488E-03
 8  4 0.00000000E+00 0.00000000E+00 9.79554362E-01 3.24943197E-03 0.00000000E+00
 8  5 0.00000000E+00 6.02237588E-02-6.87857346E-03 0.00000000E+00 0.00000000E+00
 8  6-1.82874563E-02 5.53535842E-04-2.82552922E-03-1.20674330E-03 1.07944566E-02
 9  1 0.00000000E+00 0.00000000E+00 4.36492810E-04-1.00368099E-04 0.00000000E+00
 9  2 0.00000000E+00-1.31443156E-04 3.02243230E-05 0.00000000E+00 0.00000000E+00
 9  3 2.54534731E-04-5.85282655E-05 0.00000000E+00 0.00000000E+00 0.00000000E+00
 9  4 9.55775255E-01-2.19773025E-01 0.00000000E+00 0.00000000E+00 5.49021119E-02
 9  5-1.26243101E-02 0.00000000E+00 0.00000000E+00-1.22096426E-02 2.80751158E-03
 9  6 0.00000000E+00 0.00000000E+00 0.00000000E+00 0.00000000E+00 0.00000000E+00
10  1 0.00000000E+00 0.00000000E+00 1.00368099E-04 4.36492810E-04 0.00000000E+00
10  2 0.00000000E+00-3.02243230E-05-1.31443156E-04 0.00000000E+00 0.00000000E+00
10  3 5.85282655E-05 2.54534731E-04 0.00000000E+00 0.00000000E+00 0.00000000E+00
10  4 2.19773025E-01 9.55775255E-01 0.00000000E+00 0.00000000E+00 1.26243101E-02
10  5 5.49021119E-02 0.00000000E+00 0.00000000E+00-2.80751158E-03-1.22096426E-02
10  6 0.00000000E+00 0.00000000E+00 0.00000000E+00 0.00000000E+00 0.00000000E+00
11  1 6.28650347E-02-2.56365590E-01 0.00000000E+00 0.00000000E+00 5.10204867E-02
11  2 3.18891804E-01 0.00000000E+00 0.00000000E+00-9.30478071E-02 4.24031591E-01
11  3 0.00000000E+00 0.00000000E+00-5.30872502E-02 2.99105218E-02-1.22830894E-01
11  4 0.00000000E+00 0.00000000E+00-2.79058581E-02 1.49708998E-01 0.00000000E+00
11  5 0.00000000E+00 5.10382298E-02 2.00081643E-01 0.00000000E+00 0.00000000E+00
11  6 2.98889652E-02 2.34797217E-01 3.33870816E-02 1.60493460E-01 4.85178473E-02
12  1-4.34455623E-02 1.79621329E-01 0.00000000E+00 0.00000000E+00-8.24523772E-03
12  2-2.19585842E-01 0.00000000E+00 0.00000000E+00 1.53308723E-02-3.27428502E-01
12  3 0.00000000E+00 0.00000000E+00 1.80773271E-02 7.28122322E-02-3.02031602E-01
12  4 0.00000000E+00 0.00000000E+00-2.47880889E-02 3.64432906E-01 0.00000000E+00
12  5 0.00000000E+00 4.49881756E-02 5.38564617E-01 0.00000000E+00 0.00000000E+00
12  6 3.87639943E-02-2.69226373E-02-2.40411453E-03 1.02656467E-01 3.37355944E-02
13  1 4.01112411E-02-1.76446020E-01 0.00000000E+00 0.00000000E+00-1.06388190E-01
13  2 1.91772812E-01 0.00000000E+00 0.00000000E+00 2.02760732E-01 4.39398584E-01
13  3 0.00000000E+00 0.00000000E+00 1.03432375E-01 3.37799618E-02-1.45704111E-01
13  4 0.00000000E+00 0.00000000E+00 7.59659518E-02 1.65154316E-01 0.00000000E+00
13  5 0.00000000E+00-1.45750793E-01 3.30585617E-01 0.00000000E+00 0.00000000E+00
13  6-8.72580990E-02-2.93755305E-01-1.87842497E-01-2.58623825E-01-1.03456258E-01
14  1 0.00000000E+00 0.00000000E+00-2.63660050E-01-6.61099970E-02 0.00000000E+00
14  2 0.00000000E+00 5.13806524E-01 1.28831606E-01 0.00000000E+00 0.00000000E+00
14  3 5.70122412E-01 1.42952226E-01 0.00000000E+00 0.00000000E+00 0.00000000E+00
14  4-3.88672824E-02-9.74556412E-03 0.00000000E+00 0.00000000E+00 7.34310996E-02
14  5 1.84120794E-02 0.00000000E+00 0.00000000E+00 9.15389117E-02 2.29524237E-02
14  6 0.00000000E+00 0.00000000E+00 0.00000000E+00 0.00000000E+00 0.00000000E+00
15  1 0.00000000E+00 0.00000000E+00 6.61099970E-02-2.63660050E-01 0.00000000E+00
15  2 0.00000000E+00-1.28831606E-01 5.13806524E-01 0.00000000E+00 0.00000000E+00
15  3-1.42952226E-01 5.70122412E-01 0.00000000E+00 0.00000000E+00 0.00000000E+00
15  4 9.74556412E-03-3.88672824E-02 0.00000000E+00 0.00000000E+00-1.84120794E-02
15  5 7.34310996E-02 0.00000000E+00 0.00000000E+00-2.29524237E-02 9.15389117E-02
15  6 0.00000000E+00 0.00000000E+00 0.00000000E+00 0.00000000E+00 0.00000000E+00
16  1 0.00000000E+00 0.00000000E+00-8.75351647E-03 4.40410733E-02 0.00000000E+00
16  2 0.00000000E+00 1.75027847E-02-8.80607727E-02 0.00000000E+00 0.00000000E+00
16  3 1.74970933E-02-8.80321378E-02 0.00000000E+00 0.00000000E+00 0.00000000E+00
16  4 5.27332473E-02-2.65313811E-01 0.00000000E+00 0.00000000E+00-1.02273654E-01
16  5 5.14563665E-01 0.00000000E+00 0.00000000E+00-1.15734060E-01 5.82286242E-01
16  6 0.00000000E+00 0.00000000E+00 0.00000000E+00 0.00000000E+00 0.00000000E+00
17  1 0.00000000E+00 0.00000000E+00 4.40410733E-02 8.75351647E-03 0.00000000E+00
17  2 0.00000000E+00-8.80607727E-02-1.75027847E-02 0.00000000E+00 0.00000000E+00
17  3-8.80321378E-02-1.74970933E-02 0.00000000E+00 0.00000000E+00 0.00000000E+00
17  4-2.65313811E-01-5.27332473E-02 0.00000000E+00 0.00000000E+00 5.14563665E-01
17  5 1.02273654E-01 0.00000000E+00 0.00000000E+00 5.82286242E-01 1.15734060E-01
17  6 0.00000000E+00 0.00000000E+00 0.00000000E+00 0.00000000E+00 0.00000000E+00
18  1 4.80751215E-03-3.34786770E-02 0.00000000E+00 0.00000000E+00-1.78688555E-01
18  2 3.07262620E-03 0.00000000E+00 0.00000000E+00 3.47030878E-01 2.24266081E-01
18  3 0.00000000E+00 0.00000000E+00 2.78671942E-01-8.32534070E-03 4.55217529E-02
18  4 0.00000000E+00 0.00000000E+00-1.98628387E-01-2.64749279E-02 0.00000000E+00
18  5 0.00000000E+00 3.82203234E-01-2.28750940E-01 0.00000000E+00 0.00000000E+00
18  6 3.28117688E-01-1.47740917E-01-6.01621655E-01 1.65046577E-01 6.37527883E-01
19  1-1.58653400E-02 8.01497497E-02 0.00000000E+00 0.00000000E+00-1.78535849E-01
19  2-6.60759381E-02 0.00000000E+00 0.00000000E+00 3.37519577E-01-3.96218661E-01
19  3 0.00000000E+00 0.00000000E+00 6.71806749E-01-1.45425956E-02 7.09052234E-02
19  4 0.00000000E+00 0.00000000E+00 1.71514021E-01-6.36608361E-02 0.00000000E+00
19  5 0.00000000E+00-3.20146820E-01-3.04315078E-01 0.00000000E+00 0.00000000E+00
19  6-6.05334129E-01 2.58969821E-01 4.61706540E-01 2.91467228E-01 3.86358607E-01
20  1-3.49126793E-02 1.91979527E-01 0.00000000E+00 0.00000000E+00 2.74119410E-02
20  2-1.43762166E-01 0.00000000E+00 0.00000000E+00-1.89089675E-01-2.59357433E+00
20  3 0.00000000E+00 0.00000000E+00 1.93995303E+00 2.92812248E-02-1.68872731E-01
20  4 0.00000000E+00 0.00000000E+00 8.87014020E-03 1.05663432E-01 0.00000000E+00
20  5 0.00000000E+00-1.33230991E-01 1.95613209E+00 0.00000000E+00 0.00000000E+00
20  6 1.61997733E+00 1.23052171E-01 9.91175698E+00-1.52426194E-01-9.23015179E+00
21  1-2.84417989E-02 2.02176694E-02 0.00000000E+00 0.00000000E+00-2.67387732E-03
21  2-3.46304712E-01 0.00000000E+00 0.00000000E+00 3.08489189E-02-9.02474197E-02
21  3 0.00000000E+00 0.00000000E+00 1.79533774E-01-3.10605354E-02 4.53053748E-02
21  4 0.00000000E+00 0.00000000E+00 1.19070791E-02-3.37885735E-01 0.00000000E+00
21  5 0.00000000E+00-1.95189562E-02-1.92406089E-01 0.00000000E+00 0.00000000E+00
21  6-3.82442900E-01-6.93246983E-01 6.94605315E-01-5.84804281E-01 1.16171279E+00
22  1 0.00000000E+00 0.00000000E+00-3.06809667E-01 5.42998587E-02 0.00000000E+00
22  2 0.00000000E+00 1.08507958E+00-1.92039803E-01 0.00000000E+00 0.00000000E+00
22  3-9.81799401E-01 1.73761046E-01 0.00000000E+00 0.00000000E+00 0.00000000E+00
22  4-1.96241466E-01 3.47312521E-02 0.00000000E+00 0.00000000E+00 6.89164943E-01
22  5-1.21969948E-01 0.00000000E+00 0.00000000E+00-6.11141410E-01 1.08161169E-01
22  6 0.00000000E+00 0.00000000E+00 0.00000000E+00 0.00000000E+00 0.00000000E+00
23  1 0.00000000E+00 0.00000000E+00-5.42998587E-02-3.06809667E-01 0.00000000E+00
23  2 0.00000000E+00 1.92039803E-01 1.08507958E+00 0.00000000E+00 0.00000000E+00
23  3-1.73761046E-01-9.81799401E-01 0.00000000E+00 0.00000000E+00 0.00000000E+00
23  4-3.47312521E-02-1.96241466E-01 0.00000000E+00 0.00000000E+00 1.21969948E-01
23  5 6.89164943E-01 0.00000000E+00 0.00000000E+00-1.08161169E-01-6.11141410E-01
23  6 0.00000000E+00 0.00000000E+00 0.00000000E+00 0.00000000E+00 0.00000000E+00
24  1 4.04766364E-02 1.60903267E-02 0.00000000E+00 0.00000000E+00-2.31333179E-01
24  2 5.69520377E-01 0.00000000E+00 0.00000000E+00 8.30061948E-01-6.40294149E-01
24  3 0.00000000E+00 0.00000000E+00-7.51874974E-01 5.64966143E-02 2.25596456E-02
24  4 0.00000000E+00 0.00000000E+00 1.97304434E-01 7.95869572E-01 0.00000000E+00
24  5 0.00000000E+00-6.90567309E-01-7.17338971E-01 0.00000000E+00 0.00000000E+00
24  6 6.52636522E-01-2.09791034E-01 4.35503390E-01-5.08711339E-02-3.58221271E-01
25  1 0.00000000E+00 0.00000000E+00 7.27034661E-02 1.83948002E-01 0.00000000E+00
25  2 0.00000000E+00-2.60149223E-01-6.58206992E-01 0.00000000E+00 0.00000000E+00
25  3 2.43118793E-01 6.15118076E-01 0.00000000E+00 0.00000000E+00 0.00000000E+00
25  4-1.14827130E-01-2.90525642E-01 0.00000000E+00 0.00000000E+00 4.08162183E-01
25  5 1.03269654E+00 0.00000000E+00 0.00000000E+00-3.74594142E-01-9.47765597E-01
25  6 0.00000000E+00 0.00000000E+00 0.00000000E+00 0.00000000E+00 0.00000000E+00
26  1 0.00000000E+00 0.00000000E+00 1.83948002E-01-7.27034661E-02 0.00000000E+00
26  2 0.00000000E+00-6.58206992E-01 2.60149223E-01 0.00000000E+00 0.00000000E+00
26  3 6.15118076E-01-2.43118793E-01 0.00000000E+00 0.00000000E+00 0.00000000E+00
26  4-2.90525642E-01 1.14827130E-01 0.00000000E+00 0.00000000E+00 1.03269654E+00
26  5-4.08162183E-01 0.00000000E+00 0.00000000E+00-9.47765597E-01 3.74594142E-01
26  6 0.00000000E+00 0.00000000E+00 0.00000000E+00 0.00000000E+00 0.00000000E+00
27  1 1.70035224E-02 7.57053954E-03 0.00000000E+00 0.00000000E+00 2.52554196E-01
27  2 2.42714967E-01 0.00000000E+00 0.00000000E+00-9.17681340E-01-2.04594884E-02
27  3 0.00000000E+00 0.00000000E+00 7.77673670E-01 9.76484828E-05 1.75879411E-02
27  4 0.00000000E+00 0.00000000E+00 2.75975243E-01 2.96448399E-02 0.00000000E+00
27  5 0.00000000E+00-9.84695385E-01-3.20061409E-01 0.00000000E+00 0.00000000E+00
27  6 7.30110923E-01 5.09573801E-02-1.18006443E+00-1.32695276E-01 1.34400454E+00
28  1 1.03040799E-01 2.64106493E-01 0.00000000E+00 0.00000000E+00-2.48022580E-02
28  2 1.82898699E+00 0.00000000E+00 0.00000000E+00-4.33091306E-02-4.17089659E+00
28  3 0.00000000E+00 0.00000000E+00 1.74741468E+00-5.98103328E-02-1.58754360E-01
28  4 0.00000000E+00 0.00000000E+00-4.58110264E-02-1.07124103E+00 0.00000000E+00
28  5 0.00000000E+00 7.51064005E-02 2.45138811E+00 0.00000000E+00 0.00000000E+00
28  6 9.87533625E-01 5.45601429E-01 7.61938499E+00-6.75502004E-01-6.43136776E+00
29  1 4.82026394E-02 7.69910177E-02 0.00000000E+00 0.00000000E+00 1.37620200E-01
29  2 7.81647374E-01 0.00000000E+00 0.00000000E+00-5.55789280E-01-8.95732194E-01
29  3 0.00000000E+00 0.00000000E+00 7.95800017E-01 9.76077699E-02 1.96929341E-01
29  4 0.00000000E+00 0.00000000E+00-1.64448115E-01 1.64661403E+00 0.00000000E+00
29  5 0.00000000E+00 7.00977376E-01-2.87224809E+00 0.00000000E+00 0.00000000E+00
29  6-1.71900305E+00-2.06334258E-01-1.40710123E+00-1.53324530E-01 3.62036731E+00
30  1 6.21931338E-02 1.75539885E-01 0.00000000E+00 0.00000000E+00 8.22877915E-02
30  2 1.12947233E+00 0.00000000E+00 0.00000000E+00-2.84963881E-01-3.74460256E+00
30  3 0.00000000E+00 0.00000000E+00 1.62742666E+00-4.27043448E-02-1.46436105E-01
30  4 0.00000000E+00 0.00000000E+00 2.07740311E-02-8.14121960E-01 0.00000000E+00
30  5 0.00000000E+00-5.28790131E-02 2.79505084E+00 0.00000000E+00 0.00000000E+00
30  6 1.20500200E+00-1.27584081E+00 1.06641204E+01 1.29940793E+00-9.98211352E+00
 $END   
