!
! NEO PROPERTIES TEST FOR H5O2+ MOLECULE  WHERE ALL HYDROGEN
! ATOMS ARE TREATED QUANTUM MECHANICALLY
! SINCE ONLY S NUCLEAR BASIS FUNCTIONS ARE USED THE EXPECTATION VALUE
! IS THE SAME AS THE POSITION OF EACH NUCLEAR BASIS FUNCTION CENTER
!
!..... NUCLEAR POPULATION ANALYSES .....
!
!
!         TOTAL MULLIKEN AND LOWDIN NUC ATOMIC POPULATIONS
!      NUC          MULL.POP.    CHARGE          LOW.POP.     CHARGE
!   3 PROTON        1.000000    0.634804         1.000000    0.328972
!   4 PROTON        1.000000    0.489719         1.000000    0.321696
!   5 PROTON        1.000000    0.489719         1.000000    0.321696
!   6 PROTON        1.000000    0.471816         1.000000    0.303938
!   7 PROTON        1.000000    0.471816         1.000000    0.303938
!
!..... END OF NUCLEAR POPULATION ANALYSES .....
!
!         ---------------------
!         ELECTROSTATIC MOMENTS
!         ---------------------
!
!POINT   1           X           Y           Z (BOHR)    CHARGE
!                0.005143    0.000000    0.000000        1.00 (A.U.)
!        DX          DY          DZ         /D/  (DEBYE)
!    0.925207    0.000000    0.000000    0.925207
!
!         -----------------------------------------------
!         EXPECTATION VALUE OF THE QM NUCLEAR COORDINATES
!         -----------------------------------------------
!
!     NUC                            COORDINATES (BOHR)
!                       X                   Y                   Z
!     PROTON      -3.2700560160       -1.5023127737        0.0000000000
!
!     PROTON      -3.2700560158        1.5023127737        0.0000000000
!
!     PROTON       3.2700561931       -1.5023128351        0.0000000000
!
!     PROTON       3.2700561929        1.5023128351        0.0000000000
!
!     PROTON       0.1889730423        0.0000000000        0.0000000000
!
!
 $CONTRL SCFTYP=RHF RUNTYP=ENERGY MAXIT=50 ICHARG=1 MULT=1 $END
 $SYSTEM TIMLIM=200 MEMORY=4000000   $END
 $SCF SOSCF=.F. DIIS=.T. ETHRSH=1.5 NCONV=7 $end
 $NEO NEOSCF=RONHF BASNUC=DZSNB NUNIQN=5 IUNIQN(1)=3,4,5,6,7 NUMULT=6  $END
 $BASIS  GBASIS=N31 NGAUSS=6 NPFUNC=1 NDFUNC=1 $END
 $GUESS  GUESS=MOREAD norb=55 $END
 $GESNMO GUESS=MOREAD norb=10  $END
 $DATA
  H5O2+ property calculation
 C1
 O           8.0   1.1992602545    .0000000000    .0000000000 
 O           8.0  -1.1992601106    .0000000000    .0000000000
 H           1.0    .1000002347    .0000000000    .0000000000
 H           1.0   1.7304393410    .7949897736    .0000000000
 H           1.0   1.7304393411   -.7949897736    .0000000000
 H           1.0  -1.7304392473    .7949897411    .0000000000
 H           1.0  -1.7304392474   -.7949897411    .0000000000
 $END                                                 
--- RHF ORBITALS --- GENERATED AT Tue Aug 19 11:30:09 2003
  H5O2+ property calculation
E(RHF)=     -152.1909962027, E(NUC)=   14.1200985592,   12 ITERS
 $VEC
 1  1 9.94445123E-01 2.12688127E-02 6.14616309E-04-1.55160771E-11 0.00000000E+00
 1  2 5.76431429E-03-3.20148545E-04 0.00000000E+00 0.00000000E+00-4.57118852E-03
 1  3-4.43643818E-03-4.34767887E-03 0.00000000E+00 0.00000000E+00 0.00000000E+00
 1  4-1.74381722E-04-5.62062979E-05-9.63821372E-06 0.00000000E+00 0.00000000E+00
 1  5 3.07080707E-04 1.24719524E-04 0.00000000E+00 0.00000000E+00-4.26781137E-05
 1  6-2.34951754E-05-2.13902123E-05 0.00000000E+00 0.00000000E+00 0.00000000E+00
 1  7 3.07084708E-04-9.15726739E-04 2.20458172E-04 0.00000000E+00 0.00000000E+00
 1  8 2.70979793E-04-3.93996366E-04 7.49322587E-05 5.47040031E-05 0.00000000E+00
 1  9 2.70979784E-04-3.93996369E-04 7.49322638E-05-5.47040088E-05 0.00000000E+00
 1 10-9.48142483E-06 4.88290107E-05 5.15154357E-06-8.22225584E-06 0.00000000E+00
 1 11-9.48142572E-06 4.88290206E-05 5.15153976E-06 8.22225119E-06 0.00000000E+00
 2  1 1.53244566E-04-7.88184020E-05-1.13885303E-05 0.00000000E+00 0.00000000E+00
 2  2 5.10301730E-04-2.75184471E-04 0.00000000E+00 0.00000000E+00 4.03743618E-05
 2  3-5.26055048E-05-4.73395517E-05 0.00000000E+00 0.00000000E+00 0.00000000E+00
 2  4 9.94492292E-01 2.11922847E-02-8.61758512E-04-2.13209128E-11 0.00000000E+00
 2  5 5.57915750E-03 4.82520310E-04 0.00000000E+00 0.00000000E+00-4.38863127E-03
 2  6-4.30971542E-03-4.29220826E-03 0.00000000E+00 0.00000000E+00 0.00000000E+00
 2  7 2.86851179E-05-1.05709658E-03-2.62891306E-04 0.00000000E+00 0.00000000E+00
 2  8-1.23397907E-05 8.12188771E-05-6.76282288E-06-2.15773129E-06 0.00000000E+00
 2  9-1.23397899E-05 8.12188754E-05-6.76282532E-06 2.15772877E-06 0.00000000E+00
 2 10 2.18571395E-04-3.55217202E-04-1.20239183E-04 1.10632933E-04 0.00000000E+00
 2 11 2.18571383E-04-3.55217201E-04-1.20239186E-04-1.10632935E-04 0.00000000E+00
 3  1-2.08424968E-01 4.70500354E-01 2.68317425E-02-1.13065779E-09 0.00000000E+00
 3  2 4.29364637E-01-3.04816972E-03-6.63652975E-10 0.00000000E+00 1.64525473E-02
 3  3 1.17389943E-02-8.93443127E-04-8.07425834E-11 0.00000000E+00 0.00000000E+00
 3  4-4.79082125E-02 1.04607682E-01 2.91877144E-03 9.67154962E-11 0.00000000E+00
 3  5 1.04571478E-01 1.20692070E-02 6.59854893E-11 0.00000000E+00 5.48997592E-03
 3  6 1.26858885E-03-1.24450657E-03-2.81002583E-11 0.00000000E+00 0.00000000E+00
 3  7 7.21692114E-02-1.87251307E-02 1.25676540E-02 8.09092237E-11 0.00000000E+00
 3  8 1.12025313E-01 5.19750046E-03-1.08706120E-02-1.80968793E-02 0.00000000E+00
 3  9 1.12025313E-01 5.19750025E-03-1.08706122E-02 1.80968793E-02 0.00000000E+00
 3 10 2.34412568E-02 3.30438880E-03 2.45197227E-03-3.88408915E-03 0.00000000E+00
 3 11 2.34412568E-02 3.30438888E-03 2.45197227E-03 3.88408916E-03 0.00000000E+00
 4  1 5.13659111E-02-1.18360011E-01-2.62778072E-02 4.16909231E-10 0.00000000E+00
 4  2-1.03128249E-01-1.53919846E-02 2.55266534E-10 0.00000000E+00-1.28837916E-04
 4  3-4.49119448E-03-7.80910598E-04-1.55864026E-11 0.00000000E+00 0.00000000E+00
 4  4-2.08583560E-01 4.68709720E-01-5.26499303E-02 5.15550490E-10 0.00000000E+00
 4  5 4.33484230E-01-8.75849133E-03 1.23885979E-10 0.00000000E+00 1.50556665E-02
 4  6 1.21076205E-02-8.53403528E-04-5.93700449E-11 0.00000000E+00 0.00000000E+00
 4  7 2.12363238E-02-6.47850889E-03-1.30970886E-02-4.14120003E-11 0.00000000E+00
 4  8-3.23007874E-02 5.88767633E-04 2.65277080E-03 5.19570263E-03 0.00000000E+00
 4  9-3.23007876E-02 5.88767794E-04 2.65277087E-03-5.19570265E-03 0.00000000E+00
 4 10 1.19135199E-01 6.80622364E-03 1.08036369E-02-1.87888589E-02 0.00000000E+00
 4 11 1.19135198E-01 6.80622397E-03 1.08036368E-02 1.87888589E-02 0.00000000E+00
 5  1 8.30121086E-03-1.99032715E-02 4.54717428E-01-1.62125444E-08 0.00000000E+00
 5  2-5.64162348E-02 2.96124191E-01-1.06653581E-08 0.00000000E+00-7.24132030E-03
 5  3 6.51968681E-03-1.53872247E-03-2.39630866E-10 0.00000000E+00 0.00000000E+00
 5  4-1.87876005E-03 6.90696923E-03-2.55158206E-01-2.73060149E-10 0.00000000E+00
 5  5-2.21382657E-02-1.73920883E-01-1.45803972E-11 0.00000000E+00-4.56027758E-03
 5  6 4.45962515E-03-4.25463937E-04 8.87355543E-11 0.00000000E+00 0.00000000E+00
 5  7-1.98247452E-01-3.18830086E-02-1.29050398E-02-3.22657820E-10 0.00000000E+00
 5  8 1.07179026E-01 2.60580811E-02-3.97162269E-05-1.54548655E-02 0.00000000E+00
 5  9 1.07179037E-01 2.60580835E-02-3.97174354E-05 1.54548664E-02 0.00000000E+00
 5 10 6.47289655E-02 1.41318005E-02 4.30718220E-04-9.18952651E-03 0.00000000E+00
 5 11 6.47289656E-02 1.41318010E-02 4.30718234E-04 9.18952651E-03 0.00000000E+00
 6  1-1.38687502E-10 2.12621742E-10 1.31614791E-08 5.30170775E-01 0.00000000E+00
 6  2-1.19343009E-09 9.42239612E-09 3.18406853E-01 0.00000000E+00 1.20365083E-10
 6  3-2.17665851E-10-1.52086105E-11 2.07386634E-02 0.00000000E+00 0.00000000E+00
 6  4 4.24756707E-11-1.15509937E-10-7.88591172E-09 5.32923186E-02 0.00000000E+00
 6  5-7.57765385E-10-5.20836113E-09 3.15254757E-02 0.00000000E+00-1.04621711E-10
 6  6 5.32403595E-11-7.33544523E-11-1.52712098E-03 0.00000000E+00 0.00000000E+00
 6  7-4.73850555E-09-1.06846849E-09-2.60963883E-10 8.20519539E-03 0.00000000E+00
 6  8 2.09440939E-01 7.04567035E-02-1.83478553E-02-1.50174938E-02 0.00000000E+00
 6  9-2.09440933E-01-7.04567006E-02 1.83478553E-02-1.50174926E-02 0.00000000E+00
 6 10 2.05948131E-02 9.06807747E-03 2.07844174E-03-1.55954722E-03 0.00000000E+00
 6 11-2.05948091E-02-9.06807662E-03-2.07844174E-03-1.55954665E-03 0.00000000E+00
 7  1-3.56424485E-11 5.62315846E-11-1.28471943E-09-5.95231815E-02 0.00000000E+00
 7  2 5.41644535E-10-1.04182116E-09-3.49270273E-02 0.00000000E+00-4.62142663E-11
 7  3 1.76049235E-11-1.03746244E-11-3.22343355E-03 0.00000000E+00 0.00000000E+00
 7  4 2.44575064E-11 1.41940502E-10 3.55530025E-10 5.21805261E-01 0.00000000E+00
 7  5 5.26586166E-10 3.10856303E-10 3.18745710E-01 0.00000000E+00-7.36696443E-11
 7  6-5.12350128E-11 5.86250321E-11-2.50811571E-02 0.00000000E+00 0.00000000E+00
 7  7 1.88049929E-10-4.58131302E-10 8.12688631E-11 3.12944717E-03 0.00000000E+00
 7  8-2.49820825E-02-7.57525473E-03 1.90515712E-03 1.61139826E-03 0.00000000E+00
 7  9 2.49820819E-02 7.57525438E-03-1.90515713E-03 1.61139817E-03 0.00000000E+00
 7 10 2.10602609E-01 8.12956310E-02 1.77362054E-02-1.36918281E-02 0.00000000E+00
 7 11-2.10602610E-01-8.12956325E-02-1.77362053E-02-1.36918282E-02 0.00000000E+00
 8  1 3.53155720E-02-8.23767259E-02 3.27029648E-01 4.06326471E-11 0.00000000E+00
 8  2-1.58160901E-01 2.32251922E-01-6.75326579E-10 0.00000000E+00 1.18397531E-02
 8  3 1.33785628E-03-3.11639596E-03 2.04927417E-10 0.00000000E+00 0.00000000E+00
 8  4-4.61171340E-02 1.05492788E-01 5.03354845E-01 4.09584765E-10 0.00000000E+00
 8  5 2.05528940E-01 3.67612442E-01-6.19686749E-10 0.00000000E+00-6.51238961E-03
 8  6-2.51524179E-03 5.05344044E-03-2.19303349E-10 0.00000000E+00 0.00000000E+00
 8  7-1.20098376E-03 2.61002781E-02-4.46878180E-02-1.57061349E-10 0.00000000E+00
 8  8 6.58849046E-02 3.45312357E-02 2.19073832E-03-8.21599771E-03 0.00000000E+00
 8  9 6.58849033E-02 3.45312352E-02 2.19073829E-03 8.21599770E-03 0.00000000E+00
 8 10-1.06146783E-01-5.00765749E-02 3.36613688E-03 1.40754556E-02 0.00000000E+00
 8 11-1.06146784E-01-5.00765755E-02 3.36613684E-03-1.40754556E-02 0.00000000E+00
 9  1 0.00000000E+00 0.00000000E+00 0.00000000E+00 0.00000000E+00 6.36902239E-01
 9  2 0.00000000E+00 0.00000000E+00 0.00000000E+00 4.73367174E-01 0.00000000E+00
 9  3 0.00000000E+00 0.00000000E+00 0.00000000E+00 6.15211064E-03-3.67034179E-10
 9  4 0.00000000E+00 0.00000000E+00 0.00000000E+00 0.00000000E+00 1.21416297E-01
 9  5 0.00000000E+00 0.00000000E+00 0.00000000E+00 9.71449087E-02 0.00000000E+00
 9  6 0.00000000E+00 0.00000000E+00 0.00000000E+00-3.71612619E-05 1.66028381E-11
 9  7 0.00000000E+00 0.00000000E+00 0.00000000E+00 0.00000000E+00 1.51870328E-02
 9  8 0.00000000E+00 0.00000000E+00 0.00000000E+00 0.00000000E+00 1.97932858E-02
 9  9 0.00000000E+00 0.00000000E+00 0.00000000E+00 0.00000000E+00 1.97932860E-02
 9 10 0.00000000E+00 0.00000000E+00 0.00000000E+00 0.00000000E+00 3.32242083E-03
 9 11 0.00000000E+00 0.00000000E+00 0.00000000E+00 0.00000000E+00 3.32242081E-03
10  1 0.00000000E+00 0.00000000E+00 0.00000000E+00 0.00000000E+00-1.41332357E-01
10  2 0.00000000E+00 0.00000000E+00 0.00000000E+00-9.91028957E-02 0.00000000E+00
10  3 0.00000000E+00 0.00000000E+00 0.00000000E+00-3.40058619E-03 8.12239099E-11
10  4 0.00000000E+00 0.00000000E+00 0.00000000E+00 0.00000000E+00 6.32886497E-01
10  5 0.00000000E+00 0.00000000E+00 0.00000000E+00 4.84360433E-01 0.00000000E+00
10  6 0.00000000E+00 0.00000000E+00 0.00000000E+00-1.07731613E-02 9.03515279E-11
10  7 0.00000000E+00 0.00000000E+00 0.00000000E+00 0.00000000E+00 5.53083380E-03
10  8 0.00000000E+00 0.00000000E+00 0.00000000E+00 0.00000000E+00-5.06586428E-03
10  9 0.00000000E+00 0.00000000E+00 0.00000000E+00 0.00000000E+00-5.06586433E-03
10 10 0.00000000E+00 0.00000000E+00 0.00000000E+00 0.00000000E+00 1.99873614E-02
10 11 0.00000000E+00 0.00000000E+00 0.00000000E+00 0.00000000E+00 1.99873613E-02
11  1-1.02668812E-01 1.16150309E-01 8.54097933E-02-2.58343145E-09 0.00000000E+00
11  2 1.27707682E+00 2.15782309E-01-5.43383666E-09 0.00000000E+00-4.70787958E-02
11  3-4.68539438E-02-4.53148638E-02 0.00000000E+00 0.00000000E+00 0.00000000E+00
11  4-6.62210553E-02 7.96587413E-02-8.34226610E-03 6.27793030E-11 0.00000000E+00
11  5 7.68506043E-01-6.87150106E-02 6.17908118E-10 0.00000000E+00-2.81224664E-02
11  6-2.64064895E-02-2.69454588E-02 0.00000000E+00 0.00000000E+00 0.00000000E+00
11  7-6.06622221E-02-3.35278635E-01 1.84215957E-03 0.00000000E+00 0.00000000E+00
11  8-6.87239418E-02-8.14325858E-01-3.03545997E-03-4.37392670E-03 0.00000000E+00
11  9-6.87239433E-02-8.14325878E-01-3.03546006E-03 4.37392688E-03 0.00000000E+00
11 10-3.90804858E-02-4.50627329E-01 1.98328876E-03-8.85220537E-04 0.00000000E+00
11 11-3.90804853E-02-4.50627326E-01 1.98328876E-03 8.85220519E-04 0.00000000E+00
12  1 4.35530726E-02-3.09828691E-02-1.48923424E-01 3.38364129E-09 0.00000000E+00
12  2-6.33741053E-01-2.97944157E-01 7.97162916E-09 0.00000000E+00 1.95165650E-02
12  3 2.78132951E-02 2.75132898E-02 4.16993504E-11 0.00000000E+00 0.00000000E+00
12  4-8.97068407E-02 7.40667595E-02-1.69254422E-01 9.38495876E-10 0.00000000E+00
12  5 1.22061395E+00-3.47134564E-01 3.32290082E-09 0.00000000E+00-4.10134972E-02
12  6-4.97836471E-02-5.21688388E-02-1.03830726E-11 0.00000000E+00 0.00000000E+00
12  7-8.01766521E-03-1.52894545E-01 5.19281679E-03 7.90492708E-11 0.00000000E+00
12  8 3.83979480E-02 5.57156046E-01 3.50602323E-04 4.23587879E-03 0.00000000E+00
12  9 3.83979498E-02 5.57156073E-01 3.50602356E-04-4.23587886E-03 0.00000000E+00
12 10-6.08971663E-02-8.77020333E-01 6.19041901E-04-5.13591685E-03 0.00000000E+00
12 11-6.08971654E-02-8.77020321E-01 6.19041951E-04 5.13591685E-03 0.00000000E+00
13  1 1.33482330E-09-1.31100280E-09-2.46753959E-09-3.16459199E-01 0.00000000E+00
13  2-1.77130057E-08-4.71510970E-09-7.97426247E-01 0.00000000E+00 4.61288108E-10
13  3 9.55862840E-10 6.03650053E-10-2.60615408E-03 0.00000000E+00 0.00000000E+00
13  4-4.35105973E-10 2.15914622E-10-1.96106420E-09-5.48807417E-02 0.00000000E+00
13  5 6.80173121E-09-4.14721652E-09-1.58652387E-01 0.00000000E+00-1.95229238E-10
13  6-2.94612996E-10-3.12928975E-10 8.56255195E-04 0.00000000E+00 0.00000000E+00
13  7 2.87909210E-10 3.82526309E-09 3.87630666E-11-5.36975740E-03 0.00000000E+00
13  8 7.75198469E-02 1.32582671E+00 5.83452038E-05-3.96475525E-03 0.00000000E+00
13  9-7.75198456E-02-1.32582669E+00-5.83452944E-05-3.96475534E-03 0.00000000E+00
13 10 1.38628190E-02 2.49495233E-01 1.50473000E-03-1.55336351E-03 0.00000000E+00
13 11-1.38628199E-02-2.49495246E-01-1.50473004E-03-1.55336344E-03 0.00000000E+00
14  1 1.90389987E-10-2.13987429E-10 1.31018939E-10-6.57645038E-02 0.00000000E+00
14  2-2.30292526E-09 4.62777439E-10-1.47988609E-01 0.00000000E+00 6.14615493E-11
14  3 1.39932256E-10 6.88418170E-11-1.93747837E-03 0.00000000E+00 0.00000000E+00
14  4 4.35185280E-10-4.43766129E-10 4.53689098E-10 3.17281404E-01 0.00000000E+00
14  5-5.13995821E-09 6.83626549E-10 8.14214160E-01 0.00000000E+00 1.16046669E-10
14  6 2.13253211E-10 2.06323129E-10-1.18262077E-02 0.00000000E+00 0.00000000E+00
14  7 9.97524510E-11 2.64742806E-09 0.00000000E+00 2.64780973E-03 0.00000000E+00
14  8 1.41611242E-02 2.57812951E-01 1.29442846E-03-4.09246439E-04 0.00000000E+00
14  9-1.41611242E-02-2.57812950E-01-1.29442848E-03-4.09246437E-04 0.00000000E+00
14 10-6.81180324E-02-1.34380472E+00-1.38950700E-03 6.62110269E-03 0.00000000E+00
14 11 6.81180327E-02 1.34380472E+00 1.38950709E-03 6.62110270E-03 0.00000000E+00
15  1 5.16023486E-02-1.08230600E-01 2.99286395E-01 4.59632136E-10 0.00000000E+00
15  2-6.39366989E-01 8.88874115E-01-1.23701104E-10 0.00000000E+00 1.90745061E-02
15  3 1.57239090E-04 7.71038522E-03-7.58236881E-11 0.00000000E+00 0.00000000E+00
15  4 4.22507671E-02-1.01072292E-01-2.87167249E-01 0.00000000E+00 0.00000000E+00
15  5-3.84048951E-01-8.05473471E-01-2.15402197E-10 0.00000000E+00 1.78037790E-02
15  6-3.97582186E-03 5.83359070E-04-1.18810915E-11 0.00000000E+00 0.00000000E+00
15  7 1.24520376E-01 2.61906776E+00 4.02181554E-03-1.62824896E-10 0.00000000E+00
15  8-2.56666688E-02-4.91738320E-01 2.95165204E-03 6.93016828E-04 0.00000000E+00
15  9-2.56666696E-02-4.91738317E-01 2.95165213E-03-6.93016814E-04 0.00000000E+00
15 10-2.43638345E-02-4.66634913E-01-3.02753112E-03 8.50347708E-04 0.00000000E+00
15 11-2.43638350E-02-4.66634914E-01-3.02753112E-03-8.50347750E-04 0.00000000E+00
16  1-2.20085580E-02 2.43161747E-01-1.31676655E-01 1.32089661E-08 0.00000000E+00
16  2-6.60578659E-01 2.76975143E-01-6.58895716E-08 0.00000000E+00-2.05128715E-01
16  3 8.46301456E-02 1.79374385E-01 2.36566088E-08 0.00000000E+00 0.00000000E+00
16  4-1.00440494E-02 2.39982718E-01 1.50031619E-01 1.57094608E-08 0.00000000E+00
16  5-6.47970966E-01-3.98966350E-01-6.38381690E-08 0.00000000E+00-1.10406255E-01
16  6 9.24784712E-02 1.57688431E-01-1.61803484E-08 0.00000000E+00 0.00000000E+00
16  7-9.61766966E-01 1.68198092E+00 6.71944285E-02-1.52165888E-08 0.00000000E+00
16  8-1.77396689E-01-1.25991743E-03-6.33388215E-02-3.29489454E-03 0.00000000E+00
16  9-1.77396818E-01-1.25985977E-03-6.33388314E-02 3.29489676E-03 0.00000000E+00
16 10-1.54611250E-01-1.52664807E-02 4.22783567E-02 3.23343231E-03 0.00000000E+00
16 11-1.54611348E-01-1.52664568E-02 4.22783614E-02-3.23343261E-03 0.00000000E+00
17  1-2.22988490E-09 2.74425175E-08-1.59823915E-08-1.15841894E-01 0.00000000E+00
17  2-7.70438845E-08 3.48411110E-08 5.83191339E-01 0.00000000E+00-2.35966289E-08
17  3 1.06287654E-08 2.01880715E-08-2.01938110E-01 0.00000000E+00 0.00000000E+00
17  4-1.25067536E-09 2.75492614E-08 1.67974674E-08-1.35797932E-01 0.00000000E+00
17  5-7.47040706E-08-4.61634772E-08 5.58067672E-01 0.00000000E+00-1.29807949E-08
17  6 1.01601288E-08 1.83461479E-08 1.45636933E-01 0.00000000E+00 0.00000000E+00
17  7-1.10643246E-07 1.97330291E-07 8.02800458E-09 1.35177407E-01 0.00000000E+00
17  8-5.51561638E-01 2.34985195E-01-4.09302767E-02-8.43146320E-03 0.00000000E+00
17  9 5.51561602E-01-2.34985200E-01 4.09302627E-02-8.43146343E-03 0.00000000E+00
17 10-4.35409902E-01 1.14104131E-01 2.18607936E-02 2.34913221E-04 0.00000000E+00
17 11 4.35409865E-01-1.14104134E-01-2.18607835E-02 2.34912925E-04 0.00000000E+00
18  1 0.00000000E+00 0.00000000E+00 0.00000000E+00 0.00000000E+00-7.64528818E-01
18  2 0.00000000E+00 0.00000000E+00 0.00000000E+00 8.13330144E-01 0.00000000E+00
18  3 0.00000000E+00 0.00000000E+00 0.00000000E+00-3.20348361E-02-3.58837507E-11
18  4 0.00000000E+00 0.00000000E+00 0.00000000E+00 0.00000000E+00-5.54429221E-01
18  5 0.00000000E+00 0.00000000E+00 0.00000000E+00 5.71880445E-01 0.00000000E+00
18  6 0.00000000E+00 0.00000000E+00 0.00000000E+00 4.11316595E-02-3.68308209E-11
18  7 0.00000000E+00 0.00000000E+00 0.00000000E+00 0.00000000E+00 4.74299310E-02
18  8 0.00000000E+00 0.00000000E+00 0.00000000E+00 0.00000000E+00-2.04557982E-02
18  9 0.00000000E+00 0.00000000E+00 0.00000000E+00 0.00000000E+00-2.04557980E-02
18 10 0.00000000E+00 0.00000000E+00 0.00000000E+00 0.00000000E+00-2.09096850E-02
18 11 0.00000000E+00 0.00000000E+00 0.00000000E+00 0.00000000E+00-2.09096850E-02
19  1 4.05621591E-02-3.55317156E-01-1.74883010E-01 2.51018650E-08 0.00000000E+00
19  2 5.30861435E-01 1.56375244E-02-2.99693896E-08 0.00000000E+00-1.20124933E-01
19  3 2.91128503E-01-2.33093910E-01-1.71079252E-08 0.00000000E+00 0.00000000E+00
19  4-6.46388761E-03 3.07958125E-02-1.32359243E-02-6.97668098E-09 0.00000000E+00
19  5-9.70086956E-02-8.54039346E-02-1.04543939E-08 0.00000000E+00-2.87055937E-02
19  6-3.12490923E-02 4.35845601E-02-1.64402115E-08 0.00000000E+00 0.00000000E+00
19  7-1.96097400E-01 3.62191803E-01 2.56092325E-03-1.23494684E-09 0.00000000E+00
19  8 6.90690862E-01-6.42905489E-01 1.59625984E-02 1.76457179E-01 0.00000000E+00
19  9 6.90690912E-01-6.42905585E-01 1.59626129E-02-1.76457193E-01 0.00000000E+00
19 10-1.08686495E-01 4.62083443E-02 1.06461456E-02-1.96886883E-02 0.00000000E+00
19 11-1.08686561E-01 4.62084047E-02 1.06461568E-02 1.96886950E-02 0.00000000E+00
20  1-2.67150055E-09 2.13216482E-08 9.48585043E-09 3.12062107E-01 0.00000000E+00
20  2-3.18859482E-08 3.96856165E-09-3.19763332E-01 0.00000000E+00 6.11369550E-09
20  3-1.88601576E-08 1.51658726E-08-2.72772798E-01 0.00000000E+00 0.00000000E+00
20  4 8.81113736E-10-5.73968159E-09 3.62387808E-09-1.56145432E-01 0.00000000E+00
20  5 1.10583176E-08 2.83710484E-09-7.30981063E-02 0.00000000E+00 2.84634309E-10
20  6 5.39485056E-09-5.09393737E-09-2.67737135E-01 0.00000000E+00 0.00000000E+00
20  7 8.29441361E-09-1.26198874E-08 4.39787143E-10-1.06043093E-02 0.00000000E+00
20  8-4.13483242E-01 6.79707561E-01-1.10857800E-01-9.13668178E-02 0.00000000E+00
20  9 4.13483154E-01-6.79707485E-01 1.10857798E-01-9.13667958E-02 0.00000000E+00
20 10 5.11791898E-01-5.28759361E-01-9.57953651E-02 6.27662826E-02 0.00000000E+00
20 11-5.11791869E-01 5.28759339E-01 9.57953632E-02 6.27662759E-02 0.00000000E+00
21  1-2.31425362E-04-9.03363017E-02 1.16785055E-02-3.92484928E-09 0.00000000E+00
21  2 1.03759557E-01-9.45588389E-03 4.99287771E-09 0.00000000E+00-8.91873319E-02
21  3 2.59104775E-02-1.74445276E-02 3.15270052E-09 0.00000000E+00 0.00000000E+00
21  4 4.37950146E-02-3.50278361E-01 2.14087750E-01 3.42452468E-10 0.00000000E+00
21  5 5.27722468E-01-1.06369064E-01 3.83555094E-09 0.00000000E+00-9.61949937E-02
21  6 2.89944647E-01-2.32901358E-01 2.90594465E-09 0.00000000E+00 0.00000000E+00
21  7-2.10816555E-01 3.75721187E-01 3.66033175E-03 3.56044829E-10 0.00000000E+00
21  8 6.30620940E-02-9.87301963E-02-1.64472112E-02 2.06040196E-02 0.00000000E+00
21  9 6.30620852E-02-9.87301798E-02-1.64472140E-02-2.06040174E-02 0.00000000E+00
21 10 6.85702752E-01-6.51037160E-01-2.74833907E-02 1.80382474E-01 0.00000000E+00
21 11 6.85702764E-01-6.51037168E-01-2.74833925E-02-1.80382475E-01 0.00000000E+00
22  1 0.00000000E+00 0.00000000E+00 0.00000000E+00 0.00000000E+00 5.65969460E-01
22  2 0.00000000E+00 0.00000000E+00 0.00000000E+00-6.53407533E-01 0.00000000E+00
22  3 0.00000000E+00 0.00000000E+00 0.00000000E+00-5.68540703E-02 1.61313697E-10
22  4 0.00000000E+00 0.00000000E+00 0.00000000E+00 0.00000000E+00-7.71563181E-01
22  5 0.00000000E+00 0.00000000E+00 0.00000000E+00 8.57396189E-01 0.00000000E+00
22  6 0.00000000E+00 0.00000000E+00 0.00000000E+00-2.61429712E-02-1.49765212E-11
22  7 0.00000000E+00 0.00000000E+00 0.00000000E+00 0.00000000E+00 3.50336501E-02
22  8 0.00000000E+00 0.00000000E+00 0.00000000E+00 0.00000000E+00-1.22997740E-02
22  9 0.00000000E+00 0.00000000E+00 0.00000000E+00 0.00000000E+00-1.22997744E-02
22 10 0.00000000E+00 0.00000000E+00 0.00000000E+00 0.00000000E+00-1.30489968E-04
22 11 0.00000000E+00 0.00000000E+00 0.00000000E+00 0.00000000E+00-1.30490022E-04
23  1 5.08741303E-10 2.37293783E-09 3.42542978E-10-6.14259744E-01 0.00000000E+00
23  2-8.35800045E-09-3.41013583E-09 1.18105274E+00 0.00000000E+00 5.89169969E-10
23  3 3.43433909E-09-6.29848248E-10 1.47762351E-01 0.00000000E+00 0.00000000E+00
23  4-2.06407349E-10-1.05716521E-09-7.17786923E-10-5.52597586E-01 0.00000000E+00
23  5 2.89918518E-09-4.00526513E-10 9.29312061E-01 0.00000000E+00-6.10534304E-10
23  6-1.27208038E-09 1.55396755E-10-2.03618265E-01 0.00000000E+00 0.00000000E+00
23  7-9.10615256E-10 1.38927852E-09-9.89221584E-11 2.53483198E-02 0.00000000E+00
23  8 4.69590798E-02-7.89333177E-01 9.81458809E-02 1.37293642E-01 0.00000000E+00
23  9-4.69590702E-02 7.89333176E-01-9.81458812E-02 1.37293640E-01 0.00000000E+00
23 10 1.92221205E-01-7.92039094E-01-1.15451357E-01 1.29708765E-01 0.00000000E+00
23 11-1.92221208E-01 7.92039094E-01 1.15451357E-01 1.29708766E-01 0.00000000E+00
24  1 1.41514168E-05-1.32070791E-01-7.30058463E-01-2.40566172E-09 0.00000000E+00
24  2 4.62635751E-01 1.60175273E+00 2.56923578E-09 0.00000000E+00 4.50446829E-02
24  3-3.98230368E-02-4.53165632E-02 1.19142653E-09 0.00000000E+00 0.00000000E+00
24  4-1.07860942E-02-1.90498375E-01-2.93783139E-01 2.13826241E-10 0.00000000E+00
24  5 1.66229155E-01 4.21006055E-01-6.26109469E-10 0.00000000E+00-2.18731200E-01
24  6-2.90619666E-02-1.69656825E-02 1.32439330E-10 0.00000000E+00 0.00000000E+00
24  7 4.00011831E-02 7.58613010E-01 2.37649673E-01-2.43684666E-10 0.00000000E+00
24  8-1.32988411E-01-5.34524966E-01 1.39251124E-01 4.73252678E-02 0.00000000E+00
24  9-1.32988414E-01-5.34524960E-01 1.39251123E-01-4.73252664E-02 0.00000000E+00
24 10 6.71149499E-02-9.86308226E-04 7.95540414E-02-4.59571717E-03 0.00000000E+00
24 11 6.71149499E-02-9.86309134E-04 7.95540411E-02 4.59571707E-03 0.00000000E+00
25  1 2.58029002E-02 6.06188849E-01 3.15276698E-01-1.87842587E-09 0.00000000E+00
25  2-1.30570442E+00-8.23121842E-01 5.95059057E-09 0.00000000E+00 1.54931890E-01
25  3 2.18861081E-01 1.17193915E-01-5.57987410E-10 0.00000000E+00 0.00000000E+00
25  4 8.09220182E-03 2.72740320E-01-7.23912427E-01 4.72665477E-09 0.00000000E+00
25  5-7.93700633E-01 1.45602354E+00-1.13153518E-08 0.00000000E+00-9.93502212E-02
25  6 1.20430109E-01 7.13269406E-02 2.45581790E-10 0.00000000E+00 0.00000000E+00
25  7-1.16526908E-01-9.50486627E-01 7.14628094E-02-2.05725354E-10 0.00000000E+00
25  8 1.25891606E-01 4.95114692E-01-4.69085413E-02-2.67402143E-02 0.00000000E+00
25  9 1.25891610E-01 4.95114695E-01-4.69085412E-02 2.67402150E-02 0.00000000E+00
25 10 1.72593332E-01 5.23157439E-01 1.33834055E-01-4.57486728E-02 0.00000000E+00
25 11 1.72593329E-01 5.23157429E-01 1.33834054E-01 4.57486707E-02 0.00000000E+00
26  1-3.34982872E-10-3.57594174E-09 1.83630105E-09 5.16584688E-01 0.00000000E+00
26  2 1.13948275E-08-4.29901081E-09-1.23062469E+00 0.00000000E+00-1.19742560E-09
26  3-1.64194451E-09-5.18827508E-10 6.64238501E-03 0.00000000E+00 0.00000000E+00
26  4 1.97002825E-10 7.39529295E-09-6.04872223E-09-6.40487193E-01 0.00000000E+00
26  5-1.70831337E-08 1.41873382E-08 1.47316027E+00 0.00000000E+00 9.78536215E-10
26  6 2.43325217E-09 1.84286168E-09-2.47938942E-02 0.00000000E+00 0.00000000E+00
26  7-2.99419501E-10-1.21025173E-08 2.87019811E-10 1.26702360E-02 0.00000000E+00
26  8 2.11662451E-01 5.24633098E-01-1.65559388E-02-1.17394704E-01 0.00000000E+00
26  9-2.11662454E-01-5.24633097E-01 1.65559383E-02-1.17394703E-01 0.00000000E+00
26 10-2.18971975E-01-6.70011930E-01-3.99565195E-02 1.44690235E-01 0.00000000E+00
26 11 2.18971978E-01 6.70011945E-01 3.99565220E-02 1.44690236E-01 0.00000000E+00
27  1 5.75379551E-02 1.11265478E+00-4.05743160E-03 4.48964548E-09 0.00000000E+00
27  2-2.65914001E+00-1.18879742E-01-9.90437097E-09 0.00000000E+00 3.71390245E-01
27  3 3.91843243E-01 2.19025984E-01-2.11217063E-10 0.00000000E+00 0.00000000E+00
27  4-6.37186844E-02-1.25334595E+00 1.33569844E-01-2.10625444E-09 0.00000000E+00
27  5 2.94766563E+00-5.16574230E-01 5.82745066E-09 0.00000000E+00-4.35736193E-01
27  6-4.38645552E-01-2.59268769E-01 2.07742989E-10 0.00000000E+00 0.00000000E+00
27  7 2.38480685E-03 2.67613491E-01 6.59631324E-02-1.60356263E-10 0.00000000E+00
27  8 1.28560437E-01 4.59531062E-01-3.38212238E-03-6.49362419E-03 0.00000000E+00
27  9 1.28560435E-01 4.59531053E-01-3.38212178E-03 6.49362203E-03 0.00000000E+00
27 10-1.59560471E-01-6.50379703E-01-2.64660591E-02 1.55599541E-02 0.00000000E+00
27 11-1.59560468E-01-6.50379699E-01-2.64660592E-02-1.55599531E-02 0.00000000E+00
28  1 0.00000000E+00 0.00000000E+00 0.00000000E+00 0.00000000E+00-6.76719305E-02
28  2 0.00000000E+00 0.00000000E+00 0.00000000E+00 5.43794897E-02 0.00000000E+00
28  3 0.00000000E+00 0.00000000E+00 0.00000000E+00 5.49181708E-01-5.37143549E-09
28  4 0.00000000E+00 0.00000000E+00 0.00000000E+00 0.00000000E+00-1.35618389E-01
28  5 0.00000000E+00 0.00000000E+00 0.00000000E+00 1.30187044E-01 0.00000000E+00
28  6 0.00000000E+00 0.00000000E+00 0.00000000E+00-3.83958196E-01 6.44460644E-10
28  7 0.00000000E+00 0.00000000E+00 0.00000000E+00 0.00000000E+00-4.09745035E-01
28  8 0.00000000E+00 0.00000000E+00 0.00000000E+00 0.00000000E+00 1.63133664E-01
28  9 0.00000000E+00 0.00000000E+00 0.00000000E+00 0.00000000E+00 1.63133670E-01
28 10 0.00000000E+00 0.00000000E+00 0.00000000E+00 0.00000000E+00 1.11629637E-01
28 11 0.00000000E+00 0.00000000E+00 0.00000000E+00 0.00000000E+00 1.11629636E-01
29  1-8.35356839E-02-1.17285423E+00 2.58473263E-01-9.33627545E-10 0.00000000E+00
29  2 3.38420974E+00-9.11422569E-01 2.32283291E-09 0.00000000E+00-5.41668653E-01
29  3-4.06699469E-01-8.27837280E-02-2.17065203E-10 0.00000000E+00 0.00000000E+00
29  4-7.77996360E-02-1.11991728E+00-2.75277869E-01 5.73705263E-10 0.00000000E+00
29  5 3.05247158E+00 8.30602497E-01-1.39542338E-09 0.00000000E+00-5.22655295E-01
29  6-3.98780926E-01-9.93386162E-02-8.73997707E-11 0.00000000E+00 0.00000000E+00
29  7-3.65900429E-03-2.80898664E+00-1.39175171E-02 1.78701451E-10 0.00000000E+00
29  8-1.45860827E-01-3.43428126E-02-8.27037510E-02 1.57234725E-02 0.00000000E+00
29  9-1.45860827E-01-3.43428106E-02-8.27037516E-02-1.57234724E-02 0.00000000E+00
29 10-1.40215730E-01-6.42462809E-02 8.26276057E-02 8.93759070E-03 0.00000000E+00
29 11-1.40215730E-01-6.42462819E-02 8.26276057E-02-8.93759100E-03 0.00000000E+00
30  1 0.00000000E+00 0.00000000E+00 0.00000000E+00 0.00000000E+00-6.89276237E-10
30  2 0.00000000E+00 0.00000000E+00 0.00000000E+00 1.90530458E-09 0.00000000E+00
30  3 0.00000000E+00 0.00000000E+00 0.00000000E+00 4.41548198E-09 6.79029618E-01
30  4 0.00000000E+00 0.00000000E+00 0.00000000E+00 0.00000000E+00-9.12602324E-10
30  5 0.00000000E+00 0.00000000E+00 0.00000000E+00 5.86626184E-10 0.00000000E+00
30  6 0.00000000E+00 0.00000000E+00 0.00000000E+00-4.28509239E-09 1.25098051E-02
30  7 0.00000000E+00 0.00000000E+00 0.00000000E+00 0.00000000E+00-3.73223685E-09
30  8 0.00000000E+00 0.00000000E+00 0.00000000E+00 0.00000000E+00 3.40925279E-01
30  9 0.00000000E+00 0.00000000E+00 0.00000000E+00 0.00000000E+00-3.40925279E-01
30 10 0.00000000E+00 0.00000000E+00 0.00000000E+00 0.00000000E+00 5.41262434E-03
30 11 0.00000000E+00 0.00000000E+00 0.00000000E+00 0.00000000E+00-5.41262181E-03
31  1 0.00000000E+00 0.00000000E+00 0.00000000E+00 0.00000000E+00-1.33852210E-11
31  2 0.00000000E+00 0.00000000E+00 0.00000000E+00 1.48273832E-10 0.00000000E+00
31  3 0.00000000E+00 0.00000000E+00 0.00000000E+00-1.19969967E-09-1.11255903E-02
31  4 0.00000000E+00 0.00000000E+00 0.00000000E+00 0.00000000E+00 6.56301990E-11