!
! NEO PROPERTIES TEST FOR RUNTYP=PROP 
!
!..... NUCLEAR POPULATION ANALYSES .....
!
!
!         TOTAL MULLIKEN AND LOWDIN NUC ATOMIC POPULATIONS
!      NUC          MULL.POP.    CHARGE          LOW.POP.     CHARGE
!   1 PROTON        1.000000    0.442556         1.000000    0.280476
!
!..... END OF NUCLEAR POPULATION ANALYSES .....
!
!         ---------------------
!         ELECTROSTATIC MOMENTS
!         ---------------------
!
!POINT   1           X           Y           Z (BOHR)    CHARGE
!                2.025040    0.000000    0.000000        0.00 (A.U.)
!        DX          DY          DZ         /D/  (DEBYE)
!   -2.077239    0.000000    0.000000    2.077239
!
!         -----------------------------------------------
!         EXPECTATION VALUE OF THE QM NUCLEAR COORDINATES
!         -----------------------------------------------
!
!     NUC                            COORDINATES (BOHR)
!                       X                   Y                   Z
!     PROTON       0.3751719904        0.0000000000        0.0000000000
!
!...... END OF PROPERTY EVALUATION ......
!
!-------------------------------------------------------------------------
 $CONTRL SCFTYP=RHF RUNTYP=PROP EXETYP=RUN MAXIT=100 $END
 $SYSTEM TIMLIM=5 MEMORY=20000000   $END
 $NEO NEOSCF=DIAGZN BASNUC=DZSPDN NUNIQN=1 IUNIQN(1)=1 NUMULT=2 
         NUCST=1 $END
 $BASIS  GBASIS=N31 NGAUSS=6 NDFUNC=1 NPFUNC=1  $END
 $GUESS  GUESS=MOREAD NORB=20 $END
 $GESNMO GUESS=MOREAD NORB=20 $END
 $DATA
   NEO property calculation run (runtyp=prop) for HF molecule
C1
 H           1.0    .2128376994    .0000000000    .0000000000
 F           9.0   1.1171610608    .0000000000    .0000000000
 $END
--- CLOSED SHELL ORBITALS --- GENERATED AT Tue Aug  7 11:42:03 2007
   NEO property calculation run (runtyp=prop) for HF molecule
E(RHF)=      -99.9712529163, E(NUC)=    0.0000000000,    7 ITERS
 $VEC   
 1  1 1.45189546E-04-5.35354390E-04-4.16529660E-04 0.00000000E+00 0.00000000E+00
 1  2 9.94397356E-01 1.76008602E-02-1.03972730E-03 0.00000000E+00 0.00000000E+00
 1  3 8.92761810E-03 9.04205989E-05 0.00000000E+00 0.00000000E+00-4.67721492E-03
 1  4-4.72228665E-03-4.72228665E-03 0.00000000E+00 0.00000000E+00 0.00000000E+00
 2  1 1.24675980E-01 2.04358643E-02 2.58502372E-02 0.00000000E+00 0.00000000E+00
 2  2-2.25208327E-01 5.24603876E-01-6.45535332E-02 0.00000000E+00 0.00000000E+00
 2  3 4.27661183E-01-2.28933890E-02 0.00000000E+00 0.00000000E+00 2.95626973E-02
 2  4 2.36541007E-02 2.36541007E-02 0.00000000E+00 0.00000000E+00 0.00000000E+00
 3  1-2.44242510E-01-1.33831401E-01-1.77538778E-02 0.00000000E+00 0.00000000E+00
 3  2-5.86070740E-02 1.08613837E-01 5.56360642E-01 0.00000000E+00 0.00000000E+00
 3  3 2.83374615E-01 3.62165862E-01 0.00000000E+00 0.00000000E+00-4.46695272E-02
 3  4-1.18823267E-03-1.18823267E-03 0.00000000E+00 0.00000000E+00 0.00000000E+00
 4  1 0.00000000E+00 0.00000000E+00 0.00000000E+00 2.89897769E-03 2.09688656E-02
 4  2 0.00000000E+00 0.00000000E+00 0.00000000E+00 9.00250550E-02 6.51168614E-01
 4  3 0.00000000E+00 0.00000000E+00 6.66314187E-02 4.81957923E-01 0.00000000E+00
 4  4 0.00000000E+00 0.00000000E+00-3.15006346E-03-2.27850174E-02 0.00000000E+00
 5  1 0.00000000E+00 0.00000000E+00 0.00000000E+00 2.09688656E-02-2.89897769E-03
 5  2 0.00000000E+00 0.00000000E+00 0.00000000E+00 6.51168614E-01-9.00250550E-02
 5  3 0.00000000E+00 0.00000000E+00 4.81957923E-01-6.66314187E-02 0.00000000E+00
 5  4 0.00000000E+00 0.00000000E+00-2.27850174E-02 3.15006346E-03 0.00000000E+00
 6  1 9.36148988E-02 1.44050561E+00 1.24663046E-02 0.00000000E+00 0.00000000E+00
 6  2 8.13229763E-02 1.67621378E-02 2.50022802E-01 0.00000000E+00 0.00000000E+00
 6  3-1.04733731E+00 4.77874848E-01 0.00000000E+00 0.00000000E+00 5.38764990E-02
 6  4 8.96898835E-02 8.96898835E-02 0.00000000E+00 0.00000000E+00 0.00000000E+00
 7  1-8.34691353E-01 8.50240121E-01 3.60986045E-01 0.00000000E+00 0.00000000E+00
 7  2-3.47766065E-02-1.30754101E-02-4.26770730E-01 0.00000000E+00 0.00000000E+00
 7  3-2.77569635E-03 2.21722307E-01 0.00000000E+00 0.00000000E+00-4.50481241E-01
 7  4 6.00079188E-02 6.00079188E-02 0.00000000E+00 0.00000000E+00 0.00000000E+00
 8  1 4.22665228E-01-6.41292344E-01 9.06608851E-02 0.00000000E+00 0.00000000E+00
 8  2-1.04108034E-01-1.76132691E+00-3.88312319E-01 0.00000000E+00 0.00000000E+00
 8  3 3.59315007E+00 5.30950018E-01 0.00000000E+00 0.00000000E+00-8.44868746E-01
 8  4-8.46060425E-01-8.46060425E-01 0.00000000E+00 0.00000000E+00 0.00000000E+00
 9  1 0.00000000E+00 0.00000000E+00 0.00000000E+00 5.61834598E-02-2.40734988E-02
 9  2 0.00000000E+00 0.00000000E+00 0.00000000E+00-8.68472089E-01 3.72123075E-01
 9  3 0.00000000E+00 0.00000000E+00 9.34042936E-01-4.00218883E-01 0.00000000E+00
 9  4 0.00000000E+00 0.00000000E+00-5.60104718E-02 2.39993769E-02 0.00000000E+00
10  1 0.00000000E+00 0.00000000E+00 0.00000000E+00 2.40734988E-02 5.61834598E-02
10  2 0.00000000E+00 0.00000000E+00 0.00000000E+00-3.72123075E-01-8.68472089E-01
10  3 0.00000000E+00 0.00000000E+00 4.00218883E-01 9.34042936E-01 0.00000000E+00
10  4 0.00000000E+00 0.00000000E+00-2.39993769E-02-5.60104718E-02 0.00000000E+00
11  1-5.63603047E-01-8.44084682E-01-2.29182465E-01 0.00000000E+00 0.00000000E+00
11  2-8.73016699E-02-1.29121732E+00 6.15600320E-01 0.00000000E+00 0.00000000E+00
11  3 3.07175427E+00-1.39846045E+00 0.00000000E+00 0.00000000E+00-6.81874380E-01
11  4-4.08770093E-01-4.08770093E-01 0.00000000E+00 0.00000000E+00 0.00000000E+00
12  1 0.00000000E+00 0.00000000E+00 0.00000000E+00-4.75143014E-01 1.06300146E-01
12  2 0.00000000E+00 0.00000000E+00 0.00000000E+00-8.31848548E-02 1.86103172E-02
12  3 0.00000000E+00 0.00000000E+00 2.75746055E-01-6.16905753E-02 0.00000000E+00
12  4 0.00000000E+00 0.00000000E+00 6.73649135E-01-1.50710416E-01 0.00000000E+00
13  1 0.00000000E+00 0.00000000E+00 0.00000000E+00-1.06300146E-01-4.75143014E-01
13  2 0.00000000E+00 0.00000000E+00 0.00000000E+00-1.86103172E-02-8.31848548E-02
13  3 0.00000000E+00 0.00000000E+00 6.16905753E-02 2.75746055E-01 0.00000000E+00
13  4 0.00000000E+00 0.00000000E+00 1.50710416E-01 6.73649135E-01 0.00000000E+00
14  1 0.00000000E+00 0.00000000E+00 0.00000000E+00 0.00000000E+00 0.00000000E+00
14  2 0.00000000E+00 0.00000000E+00 0.00000000E+00 0.00000000E+00 0.00000000E+00
14  3 0.00000000E+00 0.00000000E+00 0.00000000E+00 0.00000000E+00 0.00000000E+00
14  4 5.11083402E-02-5.11083402E-02 0.00000000E+00 0.00000000E+00 9.98257106E-01
15  1 0.00000000E+00 0.00000000E+00 0.00000000E+00 0.00000000E+00 0.00000000E+00
15  2 0.00000000E+00 0.00000000E+00 0.00000000E+00 0.00000000E+00 0.00000000E+00
15  3 0.00000000E+00 0.00000000E+00 0.00000000E+00 0.00000000E+00 0.00000000E+00
15  4-8.64516013E-01 8.64516013E-01 0.00000000E+00 0.00000000E+00 5.90148279E-02
16  1-8.27662500E-01 1.00839653E-01 5.65771494E-01 0.00000000E+00 0.00000000E+00
16  2-3.58330076E-02-5.94065046E-01 4.54942377E-01 0.00000000E+00 0.00000000E+00
16  3 1.08203979E+00-6.72113541E-01 0.00000000E+00 0.00000000E+00 5.87911231E-01
16  4-6.33953236E-01-6.33953236E-01 0.00000000E+00 0.00000000E+00 0.00000000E+00
17  1 0.00000000E+00 0.00000000E+00 0.00000000E+00-4.22389234E-02 1.08392374E+00
17  2 0.00000000E+00 0.00000000E+00 0.00000000E+00-1.44991444E-03 3.72073092E-02
17  3 0.00000000E+00 0.00000000E+00 1.42441302E-02-3.65528987E-01 0.00000000E+00
17  4 0.00000000E+00 0.00000000E+00-3.47847766E-02 8.92637458E-01 0.00000000E+00
18  1 0.00000000E+00 0.00000000E+00 0.00000000E+00 1.08392374E+00 4.22389234E-02
18  2 0.00000000E+00 0.00000000E+00 0.00000000E+00 3.72073092E-02 1.44991444E-03
18  3 0.00000000E+00 0.00000000E+00-3.65528987E-01-1.42441302E-02 0.00000000E+00
18  4 0.00000000E+00 0.00000000E+00 8.92637458E-01 3.47847766E-02 0.00000000E+00
19  1-8.32636209E-01-7.67759053E-01-6.19086558E-01 0.00000000E+00 0.00000000E+00
19  2-5.26873761E-01-9.96422759E-01-8.49255943E-02 0.00000000E+00 0.00000000E+00
19  3 5.91279827E+00-9.03469099E-01 0.00000000E+00 0.00000000E+00-1.31624734E+00
19  4-2.23172612E+00-2.23172612E+00 0.00000000E+00 0.00000000E+00 0.00000000E+00
20  1-2.06815498E+00-1.22647966E-01-1.46754173E+00 0.00000000E+00 0.00000000E+00
20  2 2.08615248E-01 2.82502610E-01-5.48360238E-01 0.00000000E+00 0.00000000E+00
20  3-1.02432866E+00-1.22201488E+00 0.00000000E+00 0.00000000E+00 2.32047901E+00
20  4 4.58554071E-01 4.58554071E-01 0.00000000E+00 0.00000000E+00 0.00000000E+00
 $END   
--- NUC-HF ORBITALS --- GENERATED AT Tue Aug  7 11:42:03 2007
<><><>HF NEO sp neoopt=.t. <><><>                                               
E(RHF)=      -99.9712529163, E(NUC)=    0.0000000000,    7 ITERS
 $VECPRO
 1  1-5.85265610E-01-3.13534195E-01 7.85884394E-02 0.00000000E+00 0.00000000E+00
 1  2 6.64081891E-02 0.00000000E+00 0.00000000E+00 3.70538754E-02-8.62292538E-02
 1  3-8.62292538E-02 0.00000000E+00 0.00000000E+00 0.00000000E+00-7.89635228E-03
 1  4-1.16925865E-02-1.16925865E-02 0.00000000E+00 0.00000000E+00 0.00000000E+00
 2  1 0.00000000E+00 0.00000000E+00 0.00000000E+00-3.60079067E-01-1.09942862E-01
 2  2 0.00000000E+00-5.90744933E-01-1.80372019E-01 0.00000000E+00 0.00000000E+00
 2  3 0.00000000E+00 8.97766343E-02 2.74114798E-02 0.00000000E+00 0.00000000E+00
 2  4 0.00000000E+00 0.00000000E+00 7.86685937E-02 2.40198643E-02 0.00000000E+00
 3  1 0.00000000E+00 0.00000000E+00 0.00000000E+00 1.09942862E-01-3.60079067E-01
 3  2 0.00000000E+00 1.80372019E-01-5.90744933E-01 0.00000000E+00 0.00000000E+00
 3  3 0.00000000E+00-2.74114798E-02 8.97766343E-02 0.00000000E+00 0.00000000E+00
 3  4 0.00000000E+00 0.00000000E+00-2.40198643E-02 7.86685937E-02 0.00000000E+00
 4  1-1.26509901E-01-1.83525273E-01-6.22264126E-01 0.00000000E+00 0.00000000E+00
 4  2-3.25198876E-01 0.00000000E+00 0.00000000E+00 3.35380343E-01-3.22864570E-02
 4  3-3.22864570E-02 0.00000000E+00 0.00000000E+00 0.00000000E+00 5.77147882E-02
 4  4 6.01444785E-03 6.01444785E-03 0.00000000E+00 0.00000000E+00 0.00000000E+00
 5  1-1.96830857E+00 1.50732349E+00 3.45151811E-01 0.00000000E+00 0.00000000E+00
 5  2-3.29092657E-01 0.00000000E+00 0.00000000E+00-1.10537061E-01 3.29015163E-02
 5  3 3.29015163E-02 0.00000000E+00 0.00000000E+00 0.00000000E+00-1.02246081E-01
 5  4 4.85218771E-01 4.85218771E-01 0.00000000E+00 0.00000000E+00 0.00000000E+00
 6  1-8.54246510E-10 1.12470814E-09 0.00000000E+00 0.00000000E+00 0.00000000E+00
 6  2 0.00000000E+00 0.00000000E+00 0.00000000E+00-1.58040381E-10-4.55434088E-01
 6  3 4.55434087E-01 0.00000000E+00 0.00000000E+00-1.03071686E-03 0.00000000E+00
 6  4-4.21943724E-01 4.21943724E-01 0.00000000E+00 0.00000000E+00-9.54923060E-04
 7  1 0.00000000E+00 0.00000000E+00 0.00000000E+00 0.00000000E+00 0.00000000E+00
 7  2 0.00000000E+00 0.00000000E+00 0.00000000E+00 0.00000000E+00-8.92626989E-04
 7  3 8.92626989E-04 0.00000000E+00 0.00000000E+00 5.25889986E-01 0.00000000E+00
 7  4-8.26987629E-04 8.26987629E-04 0.00000000E+00 0.00000000E+00 4.87218646E-01
 8  1 1.54096545E-11-2.02730296E-11 0.00000000E+00-1.33118269E+00-8.11247339E-03
 8  2 0.00000000E+00 1.15518376E+00 7.03990340E-03 0.00000000E+00 0.00000000E+00
 8  3 0.00000000E+00-7.01626557E-01-4.27584194E-03 0.00000000E+00 0.00000000E+00
 8  4 0.00000000E+00 0.00000000E+00-2.27128778E-01-1.38416476E-03 0.00000000E+00
 9  1-1.52751042E-11 2.00877826E-11 0.00000000E+00-8.11247339E-03 1.33118269E+00
 9  2 0.00000000E+00 7.03990340E-03-1.15518376E+00 0.00000000E+00 0.00000000E+00
 9  3 0.00000000E+00-4.27584194E-03 7.01626557E-01 0.00000000E+00 0.00000000E+00
 9  4 0.00000000E+00 0.00000000E+00-1.38416476E-03 2.27128778E-01 0.00000000E+00
10  1 3.75219653E+00-4.68509654E+00-2.00053396E+00 0.00000000E+00 0.00000000E+00
10  2 1.75717666E+00 0.00000000E+00 0.00000000E+00 2.96696018E-02 9.49339956E-01
10  3 9.49339956E-01 0.00000000E+00 0.00000000E+00 0.00000000E+00-3.06024543E-01
10  4-1.21732348E-01-1.21732348E-01 0.00000000E+00 0.00000000E+00 0.00000000E+00
11  1-3.59600823E-11 4.72258832E-11 0.00000000E+00-8.69765496E-01 3.07642033E+00
11  2 0.00000000E+00 8.76818150E-01-3.10136605E+00 0.00000000E+00 0.00000000E+00
11  3 0.00000000E+00 2.74506648E-01-9.70948879E-01 0.00000000E+00 0.00000000E+00
11  4 0.00000000E+00 0.00000000E+00-1.86245766E-01 6.58764074E-01 0.00000000E+00
12  1-6.11023782E-11 8.04290339E-11 0.00000000E+00 3.07642033E+00 8.69765496E-01
12  2 0.00000000E+00-3.10136605E+00-8.76818150E-01-1.12747485E-11-1.16126109E-11
12  3-1.14924333E-11-9.70948879E-01-2.74506648E-01 0.00000000E+00 0.00000000E+00
12  4 0.00000000E+00 0.00000000E+00 6.58764074E-01 1.86245766E-01 0.00000000E+00
13  1 1.36975178E+01-1.87939272E+01 1.27463684E+00 0.00000000E+00 0.00000000E+00
13  2-1.34544877E+00 0.00000000E+00 0.00000000E+00 1.58308045E+00 4.90685918E+00
13  3 4.90685918E+00 0.00000000E+00 0.00000000E+00 0.00000000E+00 1.04810541E+00
13  4-2.10841400E+00-2.10841400E+00 0.00000000E+00 0.00000000E+00 0.00000000E+00
14  1 0.00000000E+00-1.06662842E-11 0.00000000E+00 0.00000000E+00 0.00000000E+00
14  2 0.00000000E+00 0.00000000E+00 0.00000000E+00 0.00000000E+00-6.13113998E-04
14  3 6.13114001E-04 0.00000000E+00 0.00000000E+00-3.11256715E+00 0.00000000E+00
14  4 6.14352461E-04-6.14352460E-04 0.00000000E+00 0.00000000E+00 3.11885439E+00
15  1-3.66068510E-08 4.68776230E-08-2.14775420E-09 0.00000000E+00 0.00000000E+00
15  2 2.32286609E-09 0.00000000E+00 0.00000000E+00-4.65449142E-09 2.69556222E+00
15  3-2.69556223E+00 0.00000000E+00 0.00000000E+00-7.07963065E-04-1.17261629E-09
15  4-2.70100713E+00 2.70100713E+00 0.00000000E+00 0.00000000E+00 7.09393117E-04
16  1-1.95679944E+01 2.46361729E+01-2.09203544E+00 0.00000000E+00 0.00000000E+00
16  2 2.26053071E+00 0.00000000E+00 0.00000000E+00-1.58891324E+00-2.49208602E+00
16  3-2.49208601E+00 0.00000000E+00 0.00000000E+00 0.00000000E+00-1.20624599E+00
16  4-7.54708676E-01-7.54708682E-01 0.00000000E+00 0.00000000E+00 0.00000000E+00
17  1 2.60235058E-11-3.42371730E-11 0.00000000E+00 6.66624803E-03-8.00740957E-01
17  2 0.00000000E+00-6.82760327E-03 8.20122737E-01 0.00000000E+00 0.00000000E+00
17  3 0.00000000E+00 2.41927529E-02-2.90600170E+00 0.00000000E+00 0.00000000E+00
17  4 0.00000000E+00 0.00000000E+00-2.55744144E-02 3.07196507E+00 0.00000000E+00
18  1-2.81177834E-11 3.69799977E-11 0.00000000E+00 8.00740957E-01 6.66624803E-03
18  2 0.00000000E+00-8.20122737E-01-6.82760327E-03 0.00000000E+00 0.00000000E+00
18  3 0.00000000E+00 2.90600170E+00 2.41927529E-02 0.00000000E+00 0.00000000E+00
18  4 0.00000000E+00 0.00000000E+00-3.07196507E+00-2.55744144E-02 0.00000000E+00
19  1 2.19038802E+02-2.87944366E+02-1.07612710E+00 0.00000000E+00 0.00000000E+00
19  2 1.14812185E+00 0.00000000E+00 0.00000000E+00 3.92498626E+01 4.09995346E+01
19  3 4.09995346E+01 0.00000000E+00 0.00000000E+00 0.00000000E+00 8.70627360E-01
19  4-1.14410442E+00-1.14410442E+00 0.00000000E+00 0.00000000E+00 0.00000000E+00
20  1 1.76684360E+02-2.32776798E+02 1.04972690E+00 0.00000000E+00 0.00000000E+00
20  2-1.10968043E+00 0.00000000E+00 0.00000000E+00 3.54370412E+01 3.28916322E+01
20  3 3.28916322E+01 0.00000000E+00 0.00000000E+00 0.00000000E+00-3.29890099E+00
20  4-5.03901792E-01-5.03901792E-01 0.00000000E+00 0.00000000E+00 0.00000000E+00
 $END
