!
! NEO PROPERTIES TEST FOR A NEO-RHF CALCULATION OF THE HF MOLECULE
!
!..... NUCLEAR POPULATION ANALYSES .....
!
!
!         TOTAL MULLIKEN AND LOWDIN NUC ATOMIC POPULATIONS
!      NUC          MULL.POP.    CHARGE          LOW.POP.     CHARGE
!   1 PROTON        1.000000    0.442556         1.000000    0.280476
!
!..... END OF NUCLEAR POPULATION ANALYSES .....
!
!         ---------------------
!         ELECTROSTATIC MOMENTS
!         ---------------------
!
!POINT   1           X           Y           Z (BOHR)    CHARGE
!                2.025040    0.000000    0.000000        0.00 (A.U.)
!        DX          DY          DZ         /D/  (DEBYE)
!   -2.077239    0.000000    0.000000    2.077239
!
!         -----------------------------------------------
!         EXPECTATION VALUE OF THE QM NUCLEAR COORDINATES
!         -----------------------------------------------
!
!     NUC                            COORDINATES (BOHR)
!                       X                   Y                   Z
!     PROTON       0.3751719900        0.0000000000        0.0000000000
!
!...... END OF PROPERTY EVALUATION ......
!
!-------------------------------------------------------------------------
 $CONTRL SCFTYP=RHF RUNTYP=ENERGY EXETYP=RUN MAXIT=100 $END
 $SYSTEM TIMLIM=5 MEMORY=20000000   $END
 $NEO NEOSCF=DIAGZN BASNUC=DZSPDN NUNIQN=1 IUNIQN(1)=1 NUMULT=2 
         NUCST=1 $end
 $BASIS  GBASIS=N31 NGAUSS=6 NDFUNC=1 NPFUNC=1  $END
 $GUESS  GUESS=MOREAD NORB=20 $END
 $DATA
  NEO-Hartree-Fock properties analysis for HF molecule
C1
 H           1.0    .2128376994    .0000000000    .0000000000
 F           9.0   1.1171610608    .0000000000    .0000000000
 $END
--- RHF ORBITALS --- GENERATED AT Sun Jan 27 21:56:55 2002
E(RHF)=      -99.9712462144, E(NUC)=     .0000000000,    2 ITERS
 $VEC
 1  1 1.22061248E-04-5.42264732E-04-4.36261432E-04 0.00000000E+00 0.00000000E+00
 1  2 9.94396831E-01 1.76039653E-02-1.04802439E-03 0.00000000E+00 0.00000000E+00
 1  3 8.94340599E-03 7.55574536E-05 0.00000000E+00 0.00000000E+00-4.66329379E-03
 1  4-4.72586020E-03-4.72586020E-03 0.00000000E+00 0.00000000E+00 0.00000000E+00
 2  1 1.25538088E-01 2.04781145E-02 2.55815951E-02 0.00000000E+00 0.00000000E+00
 2  2-2.25180785E-01 5.24466249E-01-6.47976224E-02 0.00000000E+00 0.00000000E+00
 2  3 4.26987451E-01-2.26680468E-02 0.00000000E+00 0.00000000E+00 2.94691562E-02
 2  4 2.36874042E-02 2.36874042E-02 0.00000000E+00 0.00000000E+00 0.00000000E+00
 3  1-2.44545891E-01-1.33575356E-01-1.68318626E-02 0.00000000E+00 0.00000000E+00
 3  2-5.87262137E-02 1.08746970E-01 5.56523787E-01 0.00000000E+00 0.00000000E+00
 3  3 2.84584010E-01 3.61857308E-01 0.00000000E+00 0.00000000E+00-4.47693065E-02
 3  4-1.23712282E-03-1.23712282E-03 0.00000000E+00 0.00000000E+00 0.00000000E+00
 4  1 0.00000000E+00 0.00000000E+00 0.00000000E+00-7.67933827E-03 1.98238830E-02
 4  2 0.00000000E+00 0.00000000E+00 0.00000000E+00-2.37445879E-01 6.12956371E-01
 4  3 0.00000000E+00 0.00000000E+00-1.75725086E-01 4.53626786E-01 0.00000000E+00
 4  4 0.00000000E+00 0.00000000E+00 8.29537217E-03-2.14141481E-02 0.00000000E+00
 5  1 0.00000000E+00 0.00000000E+00 0.00000000E+00 1.98238830E-02 7.67933827E-03
 5  2 0.00000000E+00 0.00000000E+00 0.00000000E+00 6.12956371E-01 2.37445879E-01
 5  3 0.00000000E+00 0.00000000E+00 4.53626786E-01 1.75725086E-01 0.00000000E+00
 5  4 0.00000000E+00 0.00000000E+00-2.14141481E-02-8.29537217E-03 0.00000000E+00
 6  1 9.34007519E-02 1.44462161E+00 1.22293704E-02 0.00000000E+00 0.00000000E+00
 6  2 8.16157652E-02 1.75727338E-02 2.49440432E-01 0.00000000E+00 0.00000000E+00
 6  3-1.05411844E+00 4.78127365E-01 0.00000000E+00 0.00000000E+00 5.43936355E-02
 6  4 9.03414439E-02 9.03414439E-02 0.00000000E+00 0.00000000E+00 0.00000000E+00
 7  1-8.26930224E-01 8.46958150E-01 3.66260445E-01 0.00000000E+00 0.00000000E+00
 7  2-3.52175740E-02-1.77150794E-02-4.27275556E-01 0.00000000E+00 0.00000000E+00
 7  3 3.64649915E-03 2.25253224E-01 0.00000000E+00 0.00000000E+00-4.54797011E-01
 7  4 5.86426353E-02 5.86426353E-02 0.00000000E+00 0.00000000E+00 0.00000000E+00
 8  1 4.29026216E-01-6.43311616E-01 8.90076910E-02 0.00000000E+00 0.00000000E+00
 8  2-1.03844262E-01-1.75809667E+00-3.89191750E-01 0.00000000E+00 0.00000000E+00
 8  3 3.58512149E+00 5.36040681E-01 0.00000000E+00 0.00000000E+00-8.42066353E-01
 8  4-8.44847312E-01-8.44847312E-01 0.00000000E+00 0.00000000E+00 0.00000000E+00
 9  1 0.00000000E+00 0.00000000E+00 0.00000000E+00-3.17767179E-03 5.83956620E-02
 9  2 0.00000000E+00 0.00000000E+00 0.00000000E+00 5.13572874E-02-9.43786203E-01
 9  3 0.00000000E+00 0.00000000E+00-5.52749221E-02 1.01578007E+00 0.00000000E+00
 9  4 0.00000000E+00 0.00000000E+00 3.27365895E-03-6.01596055E-02 0.00000000E+00
10  1 0.00000000E+00 0.00000000E+00 0.00000000E+00 5.83956620E-02 3.17767179E-03
10  2 0.00000000E+00 0.00000000E+00 0.00000000E+00-9.43786203E-01-5.13572874E-02
10  3 0.00000000E+00 0.00000000E+00 1.01578007E+00 5.52749221E-02 0.00000000E+00
10  4 0.00000000E+00 0.00000000E+00-6.01596055E-02-3.27365895E-03 0.00000000E+00
11  1-5.68518649E-01-8.50426678E-01-2.29121684E-01 0.00000000E+00 0.00000000E+00
11  2-8.76677505E-02-1.29809887E+00 6.11391164E-01 0.00000000E+00 0.00000000E+00
11  3 3.09274728E+00-1.39984722E+00 0.00000000E+00 0.00000000E+00-6.82967264E-01
11  4-4.11956710E-01-4.11956710E-01 0.00000000E+00 0.00000000E+00 0.00000000E+00
12  1 0.00000000E+00 0.00000000E+00 0.00000000E+00-2.00901622E-01-4.42588762E-01
12  2 0.00000000E+00 0.00000000E+00 0.00000000E+00-3.39224919E-02-7.47316698E-02
12  3 0.00000000E+00 0.00000000E+00 1.15878499E-01 2.55281768E-01 0.00000000E+00
12  4 0.00000000E+00 0.00000000E+00 2.85306344E-01 6.28533409E-01 0.00000000E+00
13  1 0.00000000E+00 0.00000000E+00 0.00000000E+00-4.42588762E-01 2.00901622E-01
13  2 0.00000000E+00 0.00000000E+00 0.00000000E+00-7.47316698E-02 3.39224919E-02
13  3 0.00000000E+00 0.00000000E+00 2.55281768E-01-1.15878499E-01 0.00000000E+00
13  4 0.00000000E+00 0.00000000E+00 6.28533409E-01-2.85306344E-01 0.00000000E+00
14  1 0.00000000E+00 0.00000000E+00 0.00000000E+00 0.00000000E+00 0.00000000E+00
14  2 0.00000000E+00 0.00000000E+00 0.00000000E+00 0.00000000E+00 0.00000000E+00
14  3 0.00000000E+00 0.00000000E+00 0.00000000E+00 0.00000000E+00 0.00000000E+00
14  4-9.72791267E-05 9.72791267E-05 0.00000000E+00 0.00000000E+00 9.99999994E-01
15  1 0.00000000E+00 0.00000000E+00 0.00000000E+00 0.00000000E+00 0.00000000E+00
15  2 0.00000000E+00 0.00000000E+00 0.00000000E+00 0.00000000E+00 0.00000000E+00
15  3 0.00000000E+00 0.00000000E+00 0.00000000E+00 0.00000000E+00 0.00000000E+00
15  4 8.66025398E-01-8.66025398E-01 0.00000000E+00 0.00000000E+00 1.12328260E-04
16  1-8.37088820E-01 9.51610213E-02 5.63832331E-01 0.00000000E+00 0.00000000E+00
16  2-3.66763635E-02-6.01570118E-01 4.54338342E-01 0.00000000E+00 0.00000000E+00
16  3 1.10116575E+00-6.82148776E-01 0.00000000E+00 0.00000000E+00 5.93680424E-01
16  4-6.38953297E-01-6.38953297E-01 0.00000000E+00 0.00000000E+00 0.00000000E+00
17  1 0.00000000E+00 0.00000000E+00 0.00000000E+00-1.28658015E-01 1.08140582E+00
17  2 0.00000000E+00 0.00000000E+00 0.00000000E+00-4.08063314E-03 3.42988383E-02
17  3 0.00000000E+00 0.00000000E+00 4.34056276E-02-3.64836179E-01 0.00000000E+00
17  4 0.00000000E+00 0.00000000E+00-1.05916806E-01 8.90259743E-01 0.00000000E+00
18  1 0.00000000E+00 0.00000000E+00 0.00000000E+00 1.08140582E+00 1.28658015E-01
18  2 0.00000000E+00 0.00000000E+00 0.00000000E+00 3.42988383E-02 4.08063314E-03
18  3 0.00000000E+00 0.00000000E+00-3.64836179E-01-4.34056276E-02 0.00000000E+00
18  4 0.00000000E+00 0.00000000E+00 8.90259743E-01 1.05916806E-01 0.00000000E+00
19  1-7.77513394E-01-7.67718777E-01-5.75970774E-01 0.00000000E+00 0.00000000E+00
19  2-5.32978027E-01-1.00259319E+00-7.25326345E-02 0.00000000E+00 0.00000000E+00
19  3 5.95000586E+00-8.69023979E-01 0.00000000E+00 0.00000000E+00-1.38574001E+00
19  4-2.24461337E+00-2.24461337E+00 0.00000000E+00 0.00000000E+00 0.00000000E+00
20  1-2.11200256E+00-1.42517042E-01-1.48781298E+00 0.00000000E+00 0.00000000E+00
20  2 1.94164576E-01 2.69347232E-01-5.62858069E-01 0.00000000E+00 0.00000000E+00
20  3-8.59802207E-01-1.25033438E+00 0.00000000E+00 0.00000000E+00 2.28665899E+00
20  4 3.98033599E-01 3.98033599E-01 0.00000000E+00 0.00000000E+00 0.00000000E+00
 $END
