!Neo-Hartee-Fock Hessian on H5O2+ minimum,
!NUCOPT=.T. so only the oxygens are displaced and the QM hydrogens are
!fully relaxed on each displacement.
!Electronic basis set: 6-31G
!Nuclear basis set: DZSNB
!Normal mode 21 is the O-O strech.
!
!FINAL RHF ENERGY IS     -152.1385008857 AFTER  10 ITERATIONS
!
!                        21
!      FREQUENCY:       655.04  
!   REDUCED MASS:     15.99491
!
! 1   H            X  0.00000000
!                  Y  0.00000000
!                  Z  0.00000000
! 2   H            X  0.00000000
!                  Y  0.00000000
!                  Z  0.00000000
! 3   H            X  0.00000000
!                  Y  0.00000000
!                  Z  0.00000000
! 4   H            X  0.00000000
!                  Y  0.00000000
!                  Z  0.00000000
! 5   H            X  0.00000000
!                  Y  0.00000000
!                  Z  0.00000000
! 6   O            X  0.04405408
!                  Y -0.10597158
!                  Z  0.13490444
! 7   O            X -0.04434070
!                  Y  0.10596782
!                  Z -0.13399503
!
!TRANS. SAYVETZ    X -0.00458438
!                  Y -0.00006023
!                  Z  0.01454582
!              TOTAL  0.01525127
!
!  ROT. SAYVETZ    X  0.01517606
!                  Y  0.02433892
!                  Z  0.01419450
!              TOTAL  0.03200281
!
 $CONTRL SCFTYP=RHF RUNTYP=HESSIAN ICHARG=1 $END 
 $SYSTEM TIMLIM=200 MEMORY=5000000  $END
 $SCF SOSCF=.F. DIIS=.T. ETHRSH=1.5 $END
 $NEO NEOSCF=RONHF BASNUC=DZSNB NUNIQN=5 IUNIQN(1)=1,2,3,4,5 NUMULT=6 $END
 $STATPT NSTEP=80 OPTTOL=0.00001 $END
 $BASIS GBASIS=N31 NGAUSS=6  $END
 $GUESS GUESS=MOREAD NORB=28 $END
 $NMOGES GUESS=MOREAD NORB=10 $END
 $DATA
H5O2+ NEO-HF HESSIAN WITH NUCOPT=.T. TEST
 C1
 H           1.0   0.4096723811  -0.6356984082   0.6946851203
 H           1.0   0.7566772535   0.6604963118  -0.6652367854
 H           1.0  -0.8058825855   0.1353434367  -0.5614390910
 H           1.0   0.6755439647  -1.0631074901   2.5376591211
 H           1.0   1.0123540576  -2.2755407528   1.4677411786
 O           8.0   0.1070103455   0.0846663584  -0.2169167469
 O           8.0   0.7123365832  -1.3560664558   1.6062842034
 $END
--- OPTIMIZED RHF      MO-S --- GENERATED AT Mon Apr 30 03:38:45 2007
E=     -152.1385008857, E(NUC)=   14.1038138135
 $VEC   
 1  1-4.03394681E-05-3.65225981E-04-3.92365559E-05-1.28334807E-03-3.92349631E-05
 1  2-1.28334920E-03 1.67382791E-05 1.15454136E-03 1.67395800E-05 1.15454237E-03
 1  3-7.58861174E-01-1.70671770E-02 1.45297406E-04-3.45820971E-04 4.37656615E-04
 1  4 6.16682772E-03-1.23691796E-04 2.94400664E-04-3.72576786E-04 6.44642353E-01
 1  5 1.44205115E-02 1.28276481E-04-3.05320291E-04 3.86370637E-04-4.93591871E-03
 1  6-1.60614729E-04 3.82290717E-04-4.83770900E-04
 2  1-4.95730167E-04-4.48812015E-03-1.35947670E-04-6.92222687E-04-1.35945668E-04
 2  2-6.92224298E-04-1.40504317E-04-8.90610204E-04-1.40499577E-04-8.90609279E-04
 2  3-6.44684500E-01-1.49806393E-02 9.34487229E-05-2.22416799E-04 2.81485630E-04
 2  4 7.11128687E-03 2.38436822E-04-5.67500993E-04 7.18144846E-04-7.58896976E-01
 2  5-1.75430036E-02-1.15709934E-04 2.75413069E-04-3.48526965E-04 8.01478935E-03
 2  6-2.15306528E-04 5.12436372E-04-6.48461257E-04
 3  1 7.32454145E-02-1.72089429E-02 7.49214707E-02-7.59916676E-03 7.49215428E-02
 3  2-7.59917040E-03 7.49208496E-02-7.59910164E-03 7.49208920E-02-7.59909645E-03
 3  3-1.53116681E-01 3.35401632E-01-5.26020346E-03 1.25198293E-02-1.58444549E-02
 3  4 3.62461852E-01-8.24875862E-04 1.96341851E-03-2.48529275E-03-1.53115479E-01
 3  5 3.35398947E-01 5.25988478E-03-1.25201734E-02 1.58437031E-02 3.62459077E-01
 3  6 8.24738019E-04-1.96359548E-03 2.48484832E-03
 4  1-2.68014472E-07 1.05837037E-09 8.24857724E-02-1.04536800E-02 8.24858666E-02
 4  2-1.04536639E-02-8.24863698E-02 1.04537624E-02-8.24863987E-02 1.04537556E-02
 4  3-1.56006251E-01 3.42168242E-01-1.16470553E-02 2.77211525E-02-3.50813418E-02
 4  4 3.71359732E-01-4.33697722E-03 1.03225607E-02-1.30636035E-02 1.56007436E-01
 4  5-3.42170789E-01-1.16468508E-02 2.77218489E-02-3.50808968E-02-3.71362595E-01
 4  6-4.33688476E-03 1.03229030E-02-1.30632228E-02
 5  1 1.92834406E-01 2.40042478E-02-8.35389546E-02-1.35468627E-02-8.35418702E-02
 5  2-1.35475563E-02-8.35394426E-02-1.35468907E-02-8.35406874E-02-1.35471792E-02
 5  3-3.09170180E-03 5.07281496E-03 9.24422606E-02-2.20013584E-01 2.78423023E-01
 5  4 2.87859878E-02 6.63166662E-02-1.57835141E-01 1.99737403E-01-3.09146328E-03
 5  5 5.07216009E-03-9.24390999E-02 2.20016251E-01-2.78420202E-01 2.87852712E-02
 5  6-6.63147639E-02 1.57836983E-01-1.99735456E-01
 6  1 4.32136414E-07 1.22395495E-07-1.39521013E-01-3.97763754E-02 1.39520705E-01
 6  2 3.97762332E-02 1.63708294E-01 4.66717453E-02-1.63708716E-01-4.66718149E-02
 6  3-2.42875437E-08 9.77338721E-08-3.29906079E-01-9.85770254E-02 3.16351405E-02
 6  4-8.18611179E-09-2.10282668E-01-6.07601020E-02 2.18025174E-02-2.41421012E-08
 6  5 3.16601804E-08-9.50055094E-02 2.93364063E-01 2.63364828E-01 1.60492863E-07
 6  6-6.25060878E-02 1.85811323E-01 1.67584278E-01
 7  1 1.29737140E-06 2.57066282E-07-1.63710090E-01-4.66724356E-02 1.63708890E-01
 7  2 4.66721758E-02-1.39522577E-01-3.97765697E-02 1.39521397E-01 3.97763056E-02
 7  3-3.30891597E-08 8.81560397E-08-3.80775990E-01-1.38457577E-01 1.70128624E-02
 7  4 1.36075849E-07-2.41640507E-01-8.96613340E-02 9.37732073E-03-4.58581280E-08
 7  5 1.05275004E-07 5.59404538E-02-2.58435192E-01-2.22797942E-01 2.44139433E-07
 7  6 3.30995815E-02-1.65139523E-01-1.41489106E-01
 8  1 3.66591054E-07 6.27677361E-07 8.32763740E-02 3.60693780E-02 8.32765904E-02
 8  2 3.60692691E-02-8.32765655E-02-3.60693511E-02-8.32765736E-02-3.60692600E-02
 8  3 4.09672634E-02-8.90679021E-02-1.08075817E-01 2.57231367E-01-3.25525662E-01
 8  4-1.77397896E-01-8.79562361E-02 2.09344854E-01-2.64925201E-01-4.09671308E-02
 8  5 8.90674830E-02-1.08073714E-01 2.57237188E-01-3.25523289E-01 1.77397282E-01
 8  6-8.79547863E-02 2.09349355E-01-2.64923278E-01
 9  1 1.46755840E-07-5.61974587E-07 1.13896030E-02 3.43662042E-03-1.13884323E-02
 9  2-3.43511521E-03 1.16832575E-02 3.52447545E-03-1.16828932E-02-3.52463018E-03
 9  3 4.27733267E-07-1.30080456E-06 1.12394543E-01-3.33909735E-01-3.01176163E-01
 9  4-1.31746205E-06 7.63106473E-02-2.63741982E-01-2.33748334E-01 2.16630533E-07
 9  5-5.98956643E-07-4.31058173E-01-1.29239244E-01 4.09884439E-02-2.69095986E-07
 9  6-3.33140925E-01-1.09537625E-01 2.40471403E-02
10  1 1.39985825E-07 3.70640713E-07 1.16836073E-02 3.52446889E-03-1.16833120E-02
10  2-3.52529135E-03-1.13899423E-02-3.43671124E-03 1.13888512E-02 3.43555866E-03
10  3-2.66626623E-08 3.89683983E-07-7.34363612E-02 3.37653052E-01 2.91194801E-01
10  4-2.90447503E-07-6.86647203E-02 2.59030352E-01 2.27482553E-01-2.01321120E-07
10  5 4.15452602E-07-4.34202682E-01-1.61333476E-01 1.66656760E-02 1.22418915E-06
10  6-3.40477318E-01-1.16921904E-01 2.06438381E-02
11  1-6.14290455E-02-2.51756328E-01-6.52144529E-02-6.29944523E-01-6.52144573E-02
11  2-6.29943846E-01-6.52145887E-02-6.29944796E-01-6.52147856E-02-6.29946028E-01
11  3-7.73955687E-02 1.38427475E-01-1.33206848E-02 3.17050091E-02-4.01243104E-02
11  4 8.66405108E-01-4.00209487E-02 9.52548544E-02-1.20546573E-01-7.73957070E-02
11  5 1.38427650E-01 1.33208250E-02-3.17062615E-02 4.01229693E-02 8.66406644E-01
11  6 4.00211780E-02-9.52574683E-02 1.20544057E-01
12  1-2.12345263E-07-4.39766472E-07-6.47829291E-02-7.00777863E-01-6.47826185E-02
12  2-7.00775995E-01 6.47828991E-02 7.00776140E-01 6.47828629E-02 7.00775940E-01
12  3-5.96752332E-02 8.77979936E-02-4.24607959E-02 1.01062026E-01-1.27893536E-01
12  4 7.99648808E-01-8.13999035E-02 1.93742161E-01-2.45179673E-01 5.96751274E-02
12  5-8.77977877E-02-4.24611591E-02 1.01063315E-01-1.27892023E-01-7.99647508E-01
12  6-8.14005389E-02 1.93744483E-01-2.45176747E-01
13  1-1.06874253E-07-1.75899367E-07 5.48914414E-02 9.16965816E-01-5.48915136E-02
13  2-9.16967889E-01-5.56996407E-02-9.30469813E-01 5.56995797E-02 9.30470257E-01
13  3-1.07558658E-07 2.15297052E-07-2.18840057E-01-7.44372317E-02 1.38349984E-02
13  4 1.39403948E-06-5.38667413E-01-1.80117429E-01 3.65095957E-02-4.97587494E-09
13  5 3.57134586E-08-4.68828657E-02 1.72828956E-01 1.52138982E-01-1.85994597E-07
13  6-1.18837593E-01 4.23578187E-01 3.74176575E-01
14  1-2.93674983E-07-2.86904932E-07 5.56996404E-02 9.30471323E-01-5.56996207E-02
14  2-9.30472124E-01 5.48911213E-02 9.16968735E-01-5.48910807E-02-9.16967893E-01
14  3-5.59010522E-08 9.77301888E-08-2.22515444E-01-7.39087083E-02 1.54731414E-02
14  4 7.85568132E-07-5.46131335E-01-1.84453683E-01 3.55614879E-02 5.27171553E-09
14  5 1.45026105E-08 4.82670278E-02-1.69627757E-01-1.50069406E-01-2.37021573E-07
14  6 1.14974064E-01-4.18149012E-01-3.68604311E-01
15  1-1.41966290E-01-2.56727355E+00 3.22781668E-02 4.63987787E-01 3.22780052E-02
15  2 4.63988383E-01 3.22792945E-02 4.63987772E-01 3.22777229E-02 4.63988026E-01
15  3-4.55762020E-02 1.08550580E-01 7.53326923E-02-1.79300000E-01 2.26901346E-01
15  4 4.95358985E-01 2.11387482E-01-5.03122614E-01 6.36690520E-01-4.55761545E-02
15  5 1.08550367E-01-7.53338375E-02 1.79301919E-01-2.26899658E-01 4.95358562E-01
15  6-2.11388167E-01 5.03125423E-01-6.36687794E-01
16  1-1.02140382E+00 1.58993178E+00-3.34548459E-01 3.61211436E-02-3.34563198E-01
16  2 3.61247984E-02-3.34556792E-01 3.61228517E-02-3.34555965E-01 3.61236309E-02
16  3-3.86119403E-02 2.46309258E-01 4.54425087E-02-1.08153271E-01 1.36858542E-01
16  4-4.33338389E-01-1.08131113E-01 2.57339809E-01-3.25655590E-01-3.86120059E-02
16  5 2.46309837E-01-4.54355235E-02 1.08152832E-01-1.36862033E-01-4.33338747E-01
16  6 1.08116958E-01-2.57343521E-01 3.25658061E-01
17  1 9.22518984E-06-1.06196107E-05 4.23362356E-01-8.25017968E-02-4.23348108E-01
17  2 8.24979171E-02-3.96095204E-01 7.71848550E-02 3.96100092E-01-7.71875194E-02
17  3 6.64796305E-07-2.98836470E-06 1.96314467E-01-3.42675286E-01-3.35965041E-01
17  4 1.92364568E-06-6.05710039E-01 2.19714027E-01 3.74726268E-01 1.69365414E-07
17  5-8.39129471E-07 5.33497778E-01 1.05903608E-01-9.34415972E-02 2.95446162E-06
17  6-6.33747530E-01 1.82411726E-01 3.54558003E-01
18  1 2.75634246E-06-7.82425746E-06 3.95980752E-01-7.71722452E-02-3.95981297E-01
18  2 7.71719315E-02 4.23242147E-01-8.24830907E-02-4.23241079E-01 8.24824737E-02
18  3 3.58396791E-08-1.53797000E-06-2.42770089E-02 4.28705061E-01 3.46825363E-01
18  4 4.45937024E-06-3.51199471E-01-5.70542214E-01-3.34245437E-01 7.65745301E-08
18  5-1.40169524E-06 4.61808720E-01 2.33828477E-01 3.14538951E-02 3.71876697E-06
18  6-3.91640617E-01-5.54323091E-01-3.08014001E-01
19  1-1.22818364E-05 1.52580773E-05-6.91325908E-01 4.01439855E-01-6.91318178E-01
19  2 4.01433324E-01 6.91344657E-01-4.01451575E-01 6.91335907E-01-4.01446706E-01
19  3-4.45635959E-02 2.08075582E-01-4.61711078E-02 1.09894981E-01-1.39079879E-01
19  4-9.62436597E-02-3.93543317E-02 9.36705281E-02-1.18529667E-01 4.45645483E-02
19  5-2.08078818E-01-4.61703472E-02 1.09903324E-01-1.39078387E-01 9.62382474E-02
19  6-3.93586768E-02 9.36660648E-02-1.18536799E-01
20  1-7.42824039E-06 1.17924427E-05 6.21501299E-01-4.29794323E-01-6.21499793E-01
20  2 4.29790204E-01-5.57560955E-01 3.85571384E-01 5.57587602E-01-3.85589524E-01
20  3-6.01088341E-08 5.61736738E-07-2.85287562E-01 1.90556881E-01 2.45298954E-01
20  4-1.93854271E-06-1.25277418E-01-3.70992468E-01-2.51572049E-01 9.16893108E-07
20  5-4.68746247E-06-4.17417891E-01 2.14421972E-02 1.55524469E-01 4.30350393E-07
20  6 3.91707952E-01 2.90618538E-01 9.96025583E-02
21  1 5.91726618E-06-9.86750299E-06-5.57670726E-01 3.85687432E-01 5.57650141E-01
21  2-3.85674089E-01-6.21590217E-01 4.29890317E-01 6.21573614E-01-4.29878547E-01
21  3-8.41122587E-07 5.28244610E-06 1.09783889E-01 3.56059455E-01 2.44912811E-01
21  4-1.56576404E-06 2.80255981E-01-2.72271961E-01-3.08204124E-01-6.04234404E-07
21  5 3.31508208E-06 2.91648951E-01 2.78492326E-01 1.23244849E-01-2.35348075E-07
21  6-4.32492040E-01 3.16388396E-02 1.68593282E-01
22  1 6.83052386E-01-1.06419514E+00-5.95334406E-01 4.71150086E-01-5.95365508E-01
22  2 4.71169586E-01-5.95329847E-01 4.71146643E-01-5.95330470E-01 4.71145710E-01
22  3-3.65656057E-02 1.83510448E-01-6.70155096E-02 1.59489275E-01-2.01839079E-01
22  4 7.38405408E-02 1.95240350E-02-4.64847142E-02 5.88282143E-02-3.65641763E-02
22  5 1.83501256E-01 6.70007580E-02-1.59491865E-01 2.01828372E-01 7.38485540E-02
22  6-1.95215395E-02 4.64867429E-02-5.88251868E-02
23  1-2.86468759E-06-1.36668236E-06-2.78002977E-02-5.91533065E-01 2.78011567E-02
23  2 5.91529000E-01 2.76225052E-02 5.87681301E-01-2.76209896E-02-5.87675615E-01
23  3 1.01857873E-07-2.43319555E-06-6.16377824E-01-3.65896329E-01-8.44898562E-02
23  4 4.59619350E-06 1.04838674E+00 5.51008533E-01 8.73371943E-02-7.55612350E-08
23  5 1.78244296E-06 4.77043641E-02 5.69534350E-01 4.34228819E-01-3.96317314E-06
23  6-3.82823081E-04-9.26294865E-01-7.31866372E-01
24  1-1.42667560E-06 3.92074369E-06-2.77575298E-02-5.87623739E-01 2.77522059E-02
24  2 5.87622681E-01-2.79388554E-02-5.91473125E-01 2.79388173E-02 5.91474502E-01
24  3-3.30066253E-07 2.62981477E-06-6.92927446E-01-7.31148878E-02 1.72286543E-01
24  4-1.60239843E-06 1.14251117E+00 1.84033131E-01-2.33907204E-01-3.38902786E-08
24  5 9.05450448E-07 3.28632115E-01-4.46601501E-01-4.62021621E-01-2.65464414E-06
24  6-4.71016510E-01 7.73946208E-01 7.67969548E-01
25  1 5.37925529E-01 1.31130772E+00-1.88764063E-01-4.89174629E-01-1.88765056E-01
25  2-4.89173645E-01-1.88853976E-01-4.89345691E-01-1.88858220E-01-4.89348720E-01
25  3 2.50862119E-02-4.23444414E-01 1.52063484E-01-3.61929999E-01 4.58016812E-01
25  4 5.17609060E-01-3.71947337E-01 8.85275802E-01-1.12030187E+00 2.50838732E-02
25  5-4.23540762E-01-1.52162020E-01 3.62162728E-01-4.58300429E-01 5.17922035E-01
25  6 3.72114507E-01-8.85675668E-01 1.12078070E+00
26  1 1.48913252E-04 3.56750270E-04-1.77316282E-01-3.12906568E-01-1.77322848E-01
26  2-3.12918532E-01 1.77211267E-01 3.12646421E-01 1.77211778E-01 3.12649005E-01
26  3-5.07119626E-03-1.70423241E-01 1.75164518E-01-4.16891290E-01 5.27568918E-01
26  4 5.68968279E-01-3.00111087E-01 7.14255631E-01-9.03881086E-01 5.08456971E-03
26  5 1.70193968E-01 1.75073901E-01-4.16701216E-01 5.27317658E-01-5.68685895E-01
26  6-2.99891058E-01 7.13783794E-01-9.03262790E-01
27  1 1.46891935E-06-8.77227185E-07-1.85370303E-01-3.44379962E-01-1.85368719E-01
27  2-3.44379966E-01 1.85367123E-01 3.44379082E-01 1.85368692E-01 3.44380636E-01
27  3 5.01354164E-02-1.21348509E+00-2.80450038E-02 6.67491121E-02-8.44672145E-02
27  4 1.78229845E+00-1.39863887E-02 3.32925183E-02-4.21366157E-02-5.01354220E-02
27  5 1.21348371E+00-2.80446534E-02 6.67479988E-02-8.44690267E-02-1.78229538E+00
27  6-1.39870937E-02 3.32958087E-02-4.21298783E-02
28  1-5.53788034E-01-2.66256890E+00-2.23218188E-01 3.84699038E-02-2.23216171E-01
28  2 3.84690669E-02-2.23220850E-01 3.84688146E-02-2.23215022E-01 3.84704905E-02
28  3 1.23886290E-02-1.28599968E+00-6.88065944E-02 1.63766882E-01-2.07244342E-01
28  4 2.62265512E+00 2.70298545E-01-6.43335247E-01 8.14124609E-01 1.23886525E-02
28  5-1.28600025E+00 6.88082468E-02-1.63769894E-01 2.07242040E-01 2.62265543E+00
28  6-2.70302630E-01 6.43343253E-01-8.14117346E-01
 $END   
--- NUC-HF ORBITALS --- GENERATED AT Mon Apr 30 03:38:45 2007
H5O2+ NEO-HF OPTIMIZATION TEST                                                  
E(RHF)=     -152.1385008857, E(NUC)=   14.1038138135,    3 ITERS
 $VECPRO
 1  1 0.00000000E+00 0.00000000E+00 0.00000000E+00 0.00000000E+00 3.01067728E-01
 1  2 7.04342718E-01 0.00000000E+00 0.00000000E+00 0.00000000E+00 0.00000000E+00
 2  1 0.00000000E+00 0.00000000E+00 3.01066795E-01 7.04343641E-01 0.00000000E+00
 2  2 0.00000000E+00 0.00000000E+00 0.00000000E+00 0.00000000E+00 0.00000000E+00
 3  1 0.00000000E+00 0.00000000E+00 0.00000000E+00 0.00000000E+00 0.00000000E+00
 3  2 0.00000000E+00 3.01063158E-01 7.04347240E-01 0.00000000E+00 0.00000000E+00
 4  1 0.00000000E+00 0.00000000E+00 0.00000000E+00 0.00000000E+00 0.00000000E+00
 4  2 0.00000000E+00 0.00000000E+00 0.00000000E+00 3.01063325E-01 7.04347075E-01
 5  1-2.91695079E-01 1.28208127E+00 0.00000000E+00 0.00000000E+00 0.00000000E+00
 5  2 0.00000000E+00 0.00000000E+00 0.00000000E+00 0.00000000E+00 0.00000000E+00
 6  1 0.00000000E+00 0.00000000E+00 0.00000000E+00 0.00000000E+00-4.43920368E+00
 6  2 4.39329858E+00 0.00000000E+00 0.00000000E+00 0.00000000E+00 0.00000000E+00
 7  1 0.00000000E+00 0.00000000E+00-4.43920374E+00 4.39329843E+00 0.00000000E+00
 7  2 0.00000000E+00 0.00000000E+00 0.00000000E+00 0.00000000E+00 0.00000000E+00
 8  1 0.00000000E+00 0.00000000E+00 0.00000000E+00 0.00000000E+00 0.00000000E+00
 8  2 0.00000000E+00-4.43920399E+00 4.39329786E+00 0.00000000E+00 0.00000000E+00
 9  1 0.00000000E+00 0.00000000E+00 0.00000000E+00 0.00000000E+00 0.00000000E+00
 9  2 0.00000000E+00 0.00000000E+00 0.00000000E+00-4.43920398E+00 4.39329788E+00
10  1-4.43982940E+00 4.26068524E+00 0.00000000E+00 0.00000000E+00 0.00000000E+00
10  2 0.00000000E+00 0.00000000E+00 0.00000000E+00 0.00000000E+00 0.00000000E+00
 $END
