                                       (12 December 2010)

              *********************************
              *                               *
              * Section 2 - Input Description *
              *                               *
              *********************************


    This section of the manual describes the input to 
GAMESS.  The section is written in a reference, rather than 
tutorial fashion.  However, there are frequent reminders 
that more information can be found on a particular input 
group, or type of calculation, in the 'Further Information' 
section of this manual.  Numerous complete input files are 
shown in the 'Input Examples' section.

    Note that this chapter of the manual can be searched 
online by means of the "gmshelp" command, if your computer 
runs Unix.  A command such as
      gmshelp scf
will display the $SCF input group.  With no arguments, the 
gmshelp command will show you all of the input group names.  
Type "<return>" to see the next screen, "b" to back up to 
the previous screen, and "q" to exit the pager.  If gmshelp 
does not work, ask the person who installed GAMESS to fix 
the 'gmshelp' script, as it is extremely useful.

    The order of this section is chosen to approximate the 
order in which most people prepare their input ($CONTRL, 
$BASIS/$DATA, $GUESS, and so on).  The next few pages 
contain a list of all possible input groups, grouped in 
this way.  The PDF version of this file contains an index 
of all group names in alphabetical order.


                                                         *
 name    function                          module:routine
 ----    --------                          --------------
Molecule, basis set, wavefunction specification:

$CONTRL  chemical control data             INPUTA:START
$SYSTEM  computer related options          INPUTA:START
$BASIS   basis set                         INPUTB:BASISS
$DATA    molecule, geometry, basis set     INPUTB:MOLE
$ZMAT    internal coordinates              ZMATRX:ZMATIN
$LIBE    linear bend coordinates           ZMATRX:LIBE
$SCF     HF-SCF wavefunction control       SCFLIB:SCFIN
$SCFMI   SCF-MI input control data         SCFMI :MIINP
$DFT     density functional theory         DFT   :DFTINP
$TDDFT   time-dependent DFT                TDDFT :TDDINP
$CIS     singly excited CI                 CISGRD:CISINP
$CISVEC  vectors for CIS                   CISGRD:CISVRD
$MP2     2nd order Moller-Plesset          MP2   :MP2INP
$RIMP2   resolution of the identity MP2    RIMP2 :RIDRVR
$AUXBAS  RI-MP2's basis set specifiction   RIMP2 :RIDRVR
$CCINP   coupled cluster input             CCSDT :CCINP
$EOMINP  equation of motion CC             EOMCC :EOMINP
$MOPAC   semi-empirical specification      MPCMOL:MOLDAT
$GUESS   initial orbital selection         GUESS :GUESMO
$VEC     orbitals              (formatted) GUESS :READMO
$MOFRZ   freezes MOs during SCF runs       EFPCOV:MFRZIN
      Note that MCSCF and CI input is listed below.

Potential energy surface options:

$STATPT  geometry search control           STATPT:SETSIG
$TRUDGE  nongradient optimization          TRUDGE:TRUINP
$TRURST  restart data for TRUDGE           TRUDGE:TRUDGX
$FORCE   hessian, normal coordinates       HESS  :HESSX
$CPHF    coupled-Hartree-Fock options      CPHF  :CPINP
$MASS    isotope selection                 VIBANL:RAMS
$HESS    force constant matrix (formatted) HESS  :FCMIN
$GRAD    gradient vector       (formatted) HESS  :EGIN
$DIPDR   dipole deriv. matrix  (formatted) HESS  :DDMIN
$VIB     HESSIAN restart data  (formatted) HESS  :HSSNUM
$VIB2    num GRAD/HESS restart (formatted) HESS  :HSSFUL
$VSCF    vibrational anharmonicity         VSCF  :VSCFIN
$VIBSCF  VSCF restart data (formatted)     VSCF  :VGRID
$GAMMA   3rd nuclear derivatives           HESS  :GAMMXX
$EQGEOM  equilibrium geometry data         HESS  :FFCARX
$HLOWT   hessian data from equilibrium     HESS  :FFCARX
$GLOWT   3rd derivatives at equilibrium    HESS  :FFCARX
$IRC     intrinsic reaction coordinate     RXNCRD:IRCX
$DRC     dynamic reaction path             DRC   :DRCDRV
$MEX     minimum energy crossing point     MEXING:MEXINP
$MD      molecular dynamics trajectory     MDEFP :MDX
$RDF     radial dist. functions for MD     MDEFP :RDFX
$GLOBOP  Monte Carlo global optimization   GLOBOP:GLOPDR
$GRADEX  gradient extremal path            GRADEX:GRXSET
$SURF    potential surface scan            SURF  :SRFINP

Interpretation, properties:

$LOCAL   localized molecular orbitals      LOCAL :LMOINP
$TRUNCN  localized orbital truncations     EFPCOV:TRNCIN
$ELMOM   electrostatic moments             PRPLIB:INPELM
$ELPOT   electrostatic potential           PRPLIB:INPELP
$ELDENS  electron density                  PRPLIB:INPELD
$ELFLDG  electric field/gradient           PRPLIB:INPELF
$POINTS  property calculation points       PRPLIB:INPPGS
$GRID    property calculation mesh         PRPLIB:INPPGS
$PDC     MEP fitting mesh                  PRPLIB:INPPDC
$RADIAL  atomic orbital radial data        PRPPOP:RADWFN
$MOLGRF  orbital plots                     PARLEY:PLTMEM
$STONE   distributed multipole analysis    PRPPOP:STNRD
$RAMAN   Raman intensity                   RAMAN :RAMANX
$ALPDR   alpha polar. der. (formatted)     RAMAN :ADMIN
$NMR     NMR shielding tensors             NMR   :NMRX
$MOROKM  Morokuma energy decomposition     MOROKM:MOROIN
$LMOEDA  LMO-based energy decomposition    MOROKM:MMOEDIN
$FFCALC  finite field polarizabilities     FFIELD:FFLDX
$TDHF    time dependent HF of NLO props    TDHF  :TDHFX
$TDHFX   TDHF for NLO, Raman, hyperRaman   TDX:FINDTDHFX

Solvation models:

$EFRAG   use effective fragment potential  EFINP :EFINP
$FRAGNAME specifically named fragment pot. EFINP :RDSTFR
$FRGRPL  inter-fragment repulsion          EFINP :RDDFRL
$EWALD   Ewald sums for EFP electrostatics EWALD :EWALDX
$MAKEFP  generate effective fragment pot.  EFINP :EFPX
$PRTEFP  simplified EFP generation         EFINP :PREFIN
$DAMP    EFP multipole screening fit       CHGPEN:CGPINP
$DAMPGS  initial guess screening params    CHGPEN:CGPINP
$PCM     polarizable continuum model       PCM   :PCMINP
$PCMGRD  PCM gradient control              PCMCV2:PCMGIN
$PCMCAV  PCM cavity generation             PCM   :MAKCAV
$TESCAV  PCM cavity tesselation            PCMCV2:TESIN
$NEWCAV  PCM escaped charge cavity         PCM   :DISREP
$IEFPCM  PCM integral equation form. data  PCM   :IEFDAT
$PCMITR  PCM iterative IEF input           PCMIEF:ITIEFIN
$DISBS   PCM dispersion basis set          PCMDIS:ENLBS
$DISREP  PCM dispersion/repulsion          PCMVCH:MORETS
$SVP     Surface Volume Polarization model SVPINP:SVPINP
$SVPIRF  reaction field points (formatted) SVPINP:SVPIRF
$COSGMS  conductor-like screening model    COSMO :COSMIN
$SCRF    self consistent reaction field    SCRF  :ZRFINP

Integral, and integral modification options:

$ECP     effective core potentials         ECPLIB:ECPPAR
$MCP     model core potentials             MCPINP:MMPRED
$RELWFN  scalar relativistic integrals     INPUTB:RWFINP
$EFIELD  external electric field           PRPLIB:INPEF
$INTGRL  2e- integrals                     INT2A :INTIN
$FMM     fast multipole method             QMFM  :QFMMIN
$TRANS   integral transformation           TRANS :TRFIN

Fragment Molecular Orbital method:

$FMO     define FMO fragments              FMOIO :FMOMIN
$FMOPRP  FMO properties and convergers     FMOIO :FMOPIN
$FMOXYZ  atomic coordinates for FMO        FMOIO :FMOXYZ
$OPTFMO  input for special FMO optimizer   FMOGRD:OPTFMO
$FMOHYB  localized MO for FMO boundaries   FMOIO :FMOLMO
$FMOBND  FMO bond cleavage definition      FMOIO :FMOBON
$FMOENM  monomer energies for FMO restart  FMOIO :EMINOU
$FMOEND  dimer energies for FMO restart    FMOIO :EDIN
$OPTRST  OPTFMO restart data               FMOGRD:RSTOPT
$GDDI    group DDI definition              INPUTA:GDDINP

Polymer model:

$ELG     polymer elongation method         ELGLIB:ELGINP

Divide and conquer model:

$DANDC   DC SCF input                      DCLIB :DCINP
$DCCORR  DC correlation method input       DCLIB :DCCRIN
$SUBSCF  subsystem definition for SCF      DCLIB :DFLCST
$SUBCOR  subsystem definition for MP2/CC   DCLIB :DFLCST
$MP2RES  restart data for DC-MP2           DCMP2 :RDMPDC
$CCRES   restart data for DC-CC            DCCC  :RDCCDC

MCSCF and CI wavefunctions, and their properties:

$CIINP   control over CI calculation       GAMESS:WFNCI
$DET     determinant full CI for MCSCF     ALDECI:DETINP
$CIDET   determinant full CI               ALDECI:DETINP
$GEN     determinant general CI for MCSCF  ALGNCI:GCIINP
$CIGEN   determinant general CI            ALGNCI:GCIINP
$ORMAS   determinant multiple active space ORMAS :FCINPT
$CEEIS   CI energy extrapolation           CEEIS :CEEISIN
$CEDATA  restart data for CEEIS            CEEIS :RDCEEIS
$GCILST  general MCSCF/CI determinant list ALGNCI:GCIGEN
$GMCPT   general MCSCF/CI determinant list GMCPT :OSRDDAT
$PDET    parent determinant list           GMCPT :OSMKREF
$ADDDET  add determinants to reference     GMCPT :OSMKREF
$REMDET  remove determinants from ref.     GMCPT :OSMKREF
$SODET   determinant second order CI       FSODCI:SOCINP
$DRT     GUGA distinct row table for MCSCF GUGDRT:ORDORB
$CIDRT   GUGA CI (CSF) distinct row table  GUGDRT:ORDORB
$MCSCF   control over MCSCF calculation    MCSCF :MCSCF
$MRMP    MRPT selection                    MP2   :MRMPIN
$DETPT   det. multireference pert. theory  DEMRPT:DMRINP
$MCQDPT  CSF multireference pert. theory   MCQDPT:MQREAD
$CASCI   IVO-CASCI input                   IVOCAS:IVODRV
$IVOORB  fine tuning of IVO-CASCI          IVOCAS:ORBREAD
$CISORT  GUGA CI integral sorting          GUGSRT:GUGSRT
$GUGEM   GUGA CI Hamiltonian matrix        GUGEM :GUGAEM
$GUGDIA  GUGA CI diagonalization           GUGDGA:GUGADG
$GUGDM   GUGA CI 1e- density matrix        GUGDM :GUGADM
$GUGDM2  GUGA CI 2e- density matrix        GUGDM2:GUG2DM
$LAGRAN  GUGA CI Lagrangian                LAGRAN:CILGRN
$TRFDM2  GUGA CI 2e- density backtransform TRFDM2:TRF2DM
$TRANST  transition moments, spin-orbit    TRNSTN:TRNSTX

* this column is more useful to programmers than to users.


==========================================================
$CONTRL group                    (note:  only one "oh"!)

This group specifies the type of wavefunction, the type of 
calculation, use of core potentials, spherical harmonics, 
coordinate choices, and similar fundamental job options.


SCFTYP             specifies the self-consistent field
                   wavefunction.  You may choose from

       = RHF       Restricted Hartree Fock calculation
                   (default)

       = UHF       Unrestricted Hartree Fock calculation

       = ROHF      Restricted open shell Hartree-Fock.
                   (high spin, see GVB for low spin)

       = GVB       Generalized valence bond wavefunction,
                   or low spin ROHF. (needs $SCF input)

       = MCSCF     Multiconfigurational SCF wavefunction
                   (this requires $DET or $DRT input)

       = NONE      indicates a single point computation,
                   rereading a converged SCF function.
                   This option requires that you select
                   CITYP=ALDET, ORMAS, FSOCI, GENCI, or
                   GUGA, requesting only RUNTYP=ENERGY or
                   TRANSITN, and using GUESS=MOREAD.

The treatment of electron correlation for the above SCF 
wavefunctions is controlled by the keywords DFTTYP, MPLEVL, 
CITYP, and CCTYP contained in this group.  Obviously, at 
most only one of these may be chosen in a run.  Scalar 
relativistic effects may be incorporated using RELWFN for 
any of these wavefunction choices, correlated or not.




DFTTYP = NONE      ab initio computation (default)
       = XXXXXX    perform density functional theory run,
                   using the functional specified.  Many
                   choices for XXXXXX are listed in the
                   $DFT and $TDDFT input groups.

TDDFT  = NONE      no excited states (default)
       = EXCITE    generate time-dependent DFT excitation
                   energies, using the DFTTYP= functional,
                   for RHF or UHF references.  Analytic
                   nuclear gradients are available for RHF.
                   See $TDDFT.

                        * * * * *

MPLEVL =           chooses Moller-Plesset perturbation
                   theory level, after the SCF.  See $MP2,
                   or $MRMP for MCSCF.
       = 0         skip the MP computation (default)
       = 2         perform second order energy correction.

MP2 (a.k.a. MBPT(2)) is implemented for RHF, UHF, ROHF, and 
MCSCF wavefunctions, but not GVB.  Gradients are available 
for RHF, UHF, or ROHF based MP2, but for MCSCF, you must 
choose numerical derivatives to use any RUNTYP other than 
ENERGY, TRUDGE, SURFACE, or FFIELD.

                        * * * * *

CITYP  =           chooses CI computation after the SCF,
                   for any SCFTYP except UHF.
       = NONE      skips the CI. (default)
       = CIS       single excitations from a SCFTYP=RHF
                   reference, only.  This is for excited
                   states, with analytic nuclear gradients
                   available.  See the $CIS input group.
       = ALDET     runs the Ames Laboratory determinant
                   full CI package, requiring $CIDET.
       = ORMAS     runs an Occupation Restricted Multiple
                   Active Space determinant CI.  The input
                   is $CIDET and $ORMAS.
       = FSOCI     runs a full second order CI using
                   determinants, see $CIDET and $SODET.
       = GENCI     runs a determinant CI program that
                   permits arbitrary specification of
                   the determinants, requiring $CIGEN.
       = GUGA      runs the Unitary Group CI package,
                   which requires $CIDRT input. Analytic
                   gradients are available only for RHF,
                   so for other SCFTYPs, you may choose
                   only RUNTYP=ENERGY, TRUDGE, SURFACE,
                   FFIELD, TRANSITN.

                        * * * * *

CCTYP   chooses a Coupled-Cluster (CC calculation for the
        ground state and, optionally, Equation of Motion
        Coupled-Cluster (EOMCC) computation for excited
        states, both performed after the SCF (RHF or ROHF).
        See also $CCINP and $EOMINP.  
        Only CCSD and CCSD(T) for RHF can run in parallel.
        For ROHF, you may choose only CCSD and CR-CCL.

       = NONE      skips CC computation (default).
       = LCCD      perform a coupled-cluster calculation
                   using the linearized coupled-cluster
                   method with double excitations.
       = CCD       perform a CC calculation using the
                   coupled-cluster method with doubles.
       = CCSD      perform a CC calculation with both
                   single and double excitations.
       = CCSD(T)   in addition to CCSD, the non-iterative
                   triples corrections are computed, giving
                   standard CCSD[T] and CCSD(T) energies.
       = R-CC      in addition to all CCSD(T) calculations,
                   compute the renormalized R-CCSD[T] and
                   R-CCSD(T) energies.
       = CR-CC     in addition to all R-CC calculations,
                   the completely renormalized CR-CCSD[T]
                   and CR-CCSD(T) energies are computed.
       = CR-CCL    in addition to a CCSD ground state, the
                   non-iterative triples energy correction
                   defining the rigorously size extensive
                   completely renormalized CR-CC(2,3), also
                   called CR-CCSD(T)_L theory, is computed.
                   Ground state only (zero NSTATE vector)
                   CCTYP=CR-EOM type CR-EOMCCSD(T) energies
                   and CCSD properties are also generated.
                   For further information about accuracy,
                   and A to D CR-CC(2,3) energy types,
                   see REFS.DOC.
       = CCSD(TQ)  in addition to all R-CC calculations,
                   non-iterative triple and quadruple
                   corrections are used, to give CCSD(TQ)
                   and various R-CCSD(TQ) energies.
       = CR-CC(Q)  in addition to all CR-CC and CCSD(TQ)
                   calculations, the CR-CCSD(TQ) energies
                   are obtained.

       = EOM-CCSD  in addition to a CCSD ground state,
                   excited states are calculated using the
                   equation of motion coupled-cluster
                   method with singles and doubles.
       = CR-EOM    in addition to the CCSD and EOM-CCSD,
                   noniterative triples corrections to CCSD
                   ground-state and EOM-CCSD excited-state
                   energies are found, using completely
                   renormalized CR-EOMCCSD(T) approaches.
       = CR-EOML   in addition to printing all results that
                   CR-EOM obtains, this solves the lambda
                   equations, and gives triples corrections
                   analogous to ground state CR-CCL.

       = IP-EOM2   ionization potential, e.g. IP-EOM-CCSD
       = IP-EOM3A  ionization potential, e.g. IP-EOM-CCSDt
       = EA-EOM2   electron affinity, e.g. EA-EOM-CCSD
       = EA-EOM3A  electron affinity, e.g. EA-EOM-CCSDt
For electron affinities, 2 refers to truncation at the 2 
particle, 1 hole level, while 3 refers to truncation at 3 
particle, 2 hole using selected active orbitals.  For 
ionization potentials, these reverse: 2 means 2 holes, 1 
particle, while 3 means 3 holes, 2 particles using only the 
active orbitals.  EA and IP runs produce both ground and 
excited states of the e- attached or detached systems, and 
thus obey $CCINP as well as $EOMINP inputs.

Any publication describing the results of CC calculations 
obtained using GAMESS should reference the appropriate 
papers, which are listed on the output of every run, and in 
chapter 4 of this manual.

Analytic gradients are not available, so use CCTYP only for 
RUNTYP=ENERGY, TRUDGE, SURFACE, or maybe FFIELD, or request 
numerical derivatives.

Generally speaking, the Renormalized energies are obtained 
at similar cost to the standard values, while Completely 
Renormalized energies cost twice the time.  For usage tips 
and more information about resources on the various Coupled 
Cluster methods, see Section 4, 'Further Information'.

                          * * * * * 

RELWFN = NONE (default)  See also the $RELWFN input group.
       = IOTC infinite-order two-component method of
              M. Barysz and A.J. Sadlej
       = DK   Douglas-Kroll transformation, available at
              the 1st, 2nd, or 3rd order.
       = RESC relativistic elimination of small component,
              the method of T. Nakajima and K. Hirao,
              available at 2nd order only.
       = NESC normalised elimination of small component,
              the method of K. Dyall, 2nd order only.

                          * * * * * 

RUNTYP             specifies the type of computation, for
                   example at a single geometry point:

       = ENERGY    Molecular energy. (default)
       = GRADIENT  Molecular energy plus gradient.
       = HESSIAN   Molecular energy plus gradient plus
                   second derivatives, including harmonic
                   harmonic vibrational analysis.  See the
                   $FORCE and $CPHF input groups.
       = GAMMA     Evaluate up to 3rd nuclear derivatives,
                   by finite differencing of Hessians.
                   See $GAMMA, and also NFFLVL in $CONTRL.

                   multiple geometry options:

       = OPTIMIZE  Optimize the molecular geometry using
                   analytic energy gradients. See $STATPT.
       = TRUDGE    Non-gradient total energy minimization.
                   See $TRUDGE and $TRURST.
       = SADPOINT  Locate saddle point (transition state).
                   See $STATPT.
       = MEX       Locate minimum energy crossing point on
                   the intersection seam of two potential
                   energy surfaces.  See $MEX.
       = IRC       Follow intrinsic reaction coordinate.
                   See $IRC.
       = VSCF      anharmonic vibrational corrections.
                   See $VSCF.
       = DRC       Follow dynamic reaction coordinate.
                   See $DRC.
       = MD        molecular dynamics trajectory, see $MD.
       = GLOBOP    Monte Carlo-type global optimization.
                   See $GLOBOP.
       = OPTFMO    genuine FMO geometry optimization using
                   nearly analytic gradient.  See $OPTFMO.
       = GRADEXTR  Trace gradient extremal.  See $GRADEX.
       = SURFACE   Scan linear cross sections of the
                   potential energy surface.  See $SURF.

                   single geometry property options:

       = G3MP2     evaluate heat of formation using the
                   G3(MP2,CCSD(T)) methodology.  See test
                   example exam43.inp for more information.
       = PROP      Properties will be calculated.  A $DATA
                   deck and converged $VEC deck should be
                   input.  Optionally, orbital localization
                   can be done.  See $ELPOT, etc.
       = RAMAN     computes Raman intensities, see $RAMAN.
       = NACME     non-adiabatic coupling matrix element
                   between two or more state averaged MCSCF
                   wavefunctions, of FORS/CAS type.  The
                   calculation has no special input group,
                   but must use determinants.
       = NMR       NMR shielding tensors for closed shell
                   molecules by the GIAO method.  See $NMR.
       = EDA       Perform energy decomposition analysis.
                   Give one of $MOROKM or $LMOEDA inputs.
       = TRANSITN  Compute radiative transition moment or
                   spin-orbit coupling.  See $TRANST.
       = FFIELD    applies finite electric fields, most
                   commonly to extract polarizabilities.
                   See $FFCALC.
       = TDHF      analytic computation of time dependent
                   polarizabilities.  See $TDHF.
       = TDHFX     extended TDHF package, including nuclear
                   polarizability derivatives, and Raman
                   and Hyper-Raman spectra.  See $TDHFX.
       = MAKEFP    creates an effective fragment potential,
                   for SCFTYP=RHF or ROHF only.
                   See $MAKEFP, $DAMP, $DAMPGS, $STONE, ...
       = FMO0      performs the free state FMO calculation.
                   See $FMO.

 * * * * * * * * * * * * * * * * * * * * * * * * * * * * *
 Note that RUNTYPs which require the nuclear gradient are
        GRADIENT, HESSIAN, OPTIMIZE, SADPOINT,
        GLOBOP, IRC, GRADEXTR, DRC, and RAMAN
 These are efficient with analytic gradients, which are
 available only for certain CI or MP2 calculations, but no
 CC calculations, as indicated above.  See NUMGRD.
* * * * * * * * * * * * * * * * * * * * * * * * * * * * *

NUMGRD             Flag to allow numerical differentiation
                   of the energy.  Each gradient requires
                   the energy be computed twice (forward
                   and backward displacements) along each
                   totally symmetric modes.  It is thus
                   recommended only for systems with just a
                   few symmetry unique atoms in $DATA.
                   The default is .FALSE.

EXETYP = RUN       Actually do the run. (default)
       = CHECK     Wavefunction and energy will not be
                   evaluated.  This lets you speedily
                   check input and memory requirements.
                   See the overview section for details.
                   Note that you must set PARALL=.TRUE.
                   in $SYSTEM to test distributed memory
                   allocations.
       = DEBUG     Massive amounts of output are printed,
                   useful only if you hate trees.
       = routine   Maximum output is generated by the
                   routine named.  Check the source for
                   the routines this applies to.

                 * * * * * * *

ICHARG =           Molecular charge.  (default=0, neutral)

MULT   =           Multiplicity of the electronic state
       = 1         singlet (default)
       = 2,3,...   doublet, triplet, and so on.

   ICHARG and MULT are used directly for RHF, UHF, ROHF.
   For GVB, these are implicit in the $SCF input, while
   for MCSCF or CI, these are implicit in $DRT/$CIDRT or
   $DET/$CIDET input.  You must still give them correctly.

  * * * the next three control molecular geometry * * *

COORD  = choice for molecular geometry in $DATA.
       = UNIQUE    only the symmetry unique atoms will be
                   given, in Cartesian coords (default).
       = HINT      only the symmetry unique atoms will be
                   given, in Hilderbrandt style internals.
       = PRINAXIS  Cartesian coordinates will be input,
                   and transformed to principal axes.
                   Please read the warning just below!!!
       = ZMT       GAUSSIAN style internals will be input.
       = ZMTMPC    MOPAC style internals will be input.
       = FRAGONLY  means no part of the system is treated
                   by ab initio means, hence $DATA is not
                   given. The system is defined by $EFRAG.

   Note: the choices PRINAXIS, ZMT, ZMTMPC require input of 
all atoms in the molecule.  They also orient the molecule, 
and then determine which atoms are unique.  The 
reorientation is likely to change the order of the atoms 
from what you input.  When the point group contains a 3-
fold or higher rotation axis, the degenerate moments of 
inertia often cause problems choosing correct symmetry 
unique axes, in which case you must use COORD=UNIQUE rather 
than Z-matrices.

   Warning:  The reorientation into principal axes is done 
only for atomic coordinates, and is not applied to the axis 
dependent data in the following groups: $VEC, $HESS, $GRAD, 
$DIPDR, $VIB, nor Cartesian coords of effective fragments 
in $EFRAG.  COORD=UNIQUE avoids reorientation, and thus is 
the safest way to read these.

   Note: the choices PRINAXIS, ZMT, ZMTMPC require the use 
of a group named $BASIS to define the basis set.  The first 
two choices might or might not use $BASIS, as you wish.

UNITS  = distance units, any angles must be in degrees.
       = ANGS      Angstroms (default)
       = BOHR      Bohr atomic units

NZVAR  = 0  Use Cartesian coordinates (default).
       = M  If COORD=ZMT or ZMTMPC, and $ZMAT is not given:
            the internal coordinates will be those defining
            the molecule in $DATA.  In this case, $DATA may
            not contain any dummy atoms.  M is usually
            3N-6, or 3N-5 for linear.
       = M  For other COORD choices, or if $ZMAT is given:
            the internal coordinates will be those defined
            in $ZMAT.  This allows more sophisticated
            internal coordinate choices.  M is ordinarily
            3N-6 (3N-5), unless $ZMAT has linear bends.

  NZVAR refers mainly to the coordinates used by OPTIMIZE
  or SADPOINT runs, but may also print the internal's
  values for other run types.  You can use internals to
  define the molecule, but Cartesians during optimizations!

                 * * * * * * *

Pseudopotentials may be of two types:  ECP (effective core 
potentials) which generate nodeless valence orbitals, and 
MCP (model core potentials) producing valence orbitals with 
the correct radial nodal structure.  At present, ECPs have 
analytic nuclear gradients and Hessians, while MCPs have 
analytic nuclear gradients.

PP     =           pseudopotential selection.
       = NONE      all electron calculation (default).
       = READ      read ECP potentials in the $ECP group.
       = SBKJC     use Stevens, Basch, Krauss, Jasien,
                   Cundari ECP potentials for all heavy
                   atoms (Li-Rn are available).
       = HW        use Hay, Wadt ECP potentials for heavy
                   atoms (Na-Xe are available).
       = MCP       use Huzinaga's Model Core Potentials.
                   The correct MCP potential will be chosen
                   to match the requested MCP valence basis
                   set (see $BASIS).

                 * * * * * * *

LOCAL  =          controls orbital localization.
       = NONE     Skip localization (default).
       = BOYS     Do Foster-Boys localization.
       = RUEDNBRG Do Edmiston-Ruedenberg localization.
       = POP      Do Pipek-Mezey population localization.
                  See the $LOCAL group.   Localization
                  does not work for SCFTYP=GVB or CITYP.

                 * * * * * * *

ISPHER =      Spherical Harmonics option
       = -1   Use Cartesian basis functions to construct
              symmetry-adapted linear combination (SALC)
              of basis functions.  The SALC space is the
              linear variation space used.  (default)
       = 0    Use spherical harmonic functions to create
              SALC functions, which are then expressed
              in terms of Cartesian functions.  The
              contaminants are not dropped, hence this
              option has EXACTLY the same variational
              space as ISPHER=-1.  The only benefit to
              obtain from this is a population analysis
              in terms of pure s,p,d,f,g functions.
       = +1   Same as ISPHER=0, but the function space
              is truncated to eliminate all contaminant
              Cartesian functions [3S(D), 3P(F), 4S(G),
              and 3D(G)] before constructing the SALC
              functions.  The computation corresponds