!
! This job tests NEO-HF with direct 2-electron integrals and
! direct proton-electron integrals for HSi(OH)3.
! 1 proton is quantum mechanical using NMOMTD=DIAGZN.
!
! DIRSCF=.TRUE., FDIFF=.FALSE., and SCHWRZ=.FALSE.
! DIRNUC=.TRUE.
!
! FINAL ENERGY IS     -515.9249079654 AFTER   8 ITERATIONS
!
 $CONTRL SCFTYP=RHF RUNTYP=ENERGY  $END
 $SYSTEM TIMLIM=50 MEMORY=1000000 $END
 $SCF    SOSCF=.F. DIIS=.T. ETHRSH=1.5 
         DIRSCF=.T. FDIFF=.T. $END
 $INTGRL SCHWRZ=.F. $END
 $NEO    NEOSCF=DIAGZN BASNUC=DZSPDN NUNIQN=1
         IUNIQN(1)=8 NUMULT=2
         DIRNUC=.T. $END
 $BASIS  GBASIS=N31 NGAUSS=6 NDFUNC=1 $END
 $GUESS  GUESS=MOREAD NORB=72 $END
 $DATA
 --- HSi(OH)3 ENERGY RHF/6-31(d) --- TAKAKOS GEOMETRY
 C1
 Si  14.0   -.027265    -.017365     .344315
 H    1.0   -.083297    -.144205    1.805346
 O    8.0    .462465    1.458818    -.166729
 O    8.0   1.077173   -1.062147    -.284980
 O    8.0  -1.553113    -.292402    -.177424
 H    1.0   1.360299    1.526673    -.460662
 H    1.0    .986536   -1.982855    -.083910
 H    1.0  -1.774025     .009345   -1.048117
 $END
--- RHF ORBITALS --- GENERATED AT Sat Dec  7 08:59:34 2002
 --- HSi(OH)3 ENERGY RHF/6-31(d) --- TAKAKOS GEOMETRY                           
E(RHF)=     -515.9639821956, E(NUC)=  189.1768024771,   10 ITERS
 $VEC
 1  1 9.96865640E-01 1.24321281E-02 1.27428647E-06 2.52380279E-06-2.97693811E-05
 1  2-1.69946286E-02-8.37712771E-06-8.87148640E-06 8.85069839E-05 1.74233677E-03
 1  3 3.26957189E-05-9.12785655E-06-1.33542669E-04 5.91348655E-03 5.91399855E-03
 1  4 5.92049162E-03 7.77578858E-07-5.59328415E-06 2.55357238E-06-6.66980632E-05
 1  5 2.68303713E-04-1.29732015E-05-1.20732927E-04 2.55317692E-05 1.20794921E-04
 1  6-4.31435995E-05 4.66674648E-04 3.07853326E-07-1.20999131E-04 4.45049558E-05
 1  7-4.43654874E-05-7.57128900E-05-3.74922000E-05-1.55811506E-05 1.21218794E-05
 1  8 2.13798135E-05-8.77435281E-06-1.04752527E-04 9.28679917E-05-6.96627936E-05
 1  9-6.13391221E-05 3.97577996E-04-9.90415927E-05 3.66201781E-05 8.00626602E-05
 1 10-4.44322151E-05-4.83507597E-05-2.97639049E-05 3.08382888E-05 2.10534633E-05
 1 11-1.78202377E-05-1.45097880E-05-1.26934603E-04-1.21794725E-04-2.99359240E-05
 1 12-2.92586529E-05 4.95093278E-04 1.11541474E-04 4.80009353E-05-5.76956021E-06
 1 13-8.28897958E-05-3.57822651E-05-5.19558699E-05-9.40829383E-06-2.61817123E-05
 1 14-9.80545311E-07 5.31297037E-05-1.75197446E-04 3.88408835E-05-1.50841468E-04
 1 15 4.67311740E-05-1.85469003E-04
 2  1 1.08466284E-05-7.01220210E-05-4.13687615E-05 4.27681976E-05 1.53061866E-05
 2  2 2.67006024E-04 2.53889938E-04-2.65585226E-04-6.99845251E-05-4.85545458E-04
 2  3-2.85404753E-04 3.23832531E-05 2.77661915E-04-2.89567940E-05 3.38541681E-05
 2  4-7.53158649E-05-1.85058767E-04-7.85707843E-05 1.10345192E-04 2.25135890E-05
 2  5-4.77856916E-05-1.02327824E-03-3.93296998E-05 1.20063426E-05-1.85028251E-05
 2  6 2.65557386E-06 1.75645032E-04-9.49814815E-05-9.45563616E-06 1.75736119E-05
 2  7-1.99162914E-05-2.24232705E-05 1.15705703E-05 2.74799723E-05 2.04236790E-05
 2  8-8.96853886E-06 9.94575427E-01 2.11788861E-02-6.52256448E-04-5.65644939E-04
 2  9 5.57388603E-04 4.43690793E-03 3.13374272E-04 2.67345938E-04-2.87774126E-04
 2 10-4.16949048E-03-4.30183598E-03-4.12906715E-03 3.93223589E-05 5.34011094E-05
 2 11 5.83432451E-06-1.33971711E-03-2.34526762E-05-6.99799759E-06 2.62216552E-06
 2 12 9.37396454E-06-2.56346223E-05 9.10340987E-05 1.93478853E-05-4.25316457E-06
 2 13 3.50337715E-05 2.13149257E-05 3.41531721E-05 1.93634538E-05 1.20131540E-05
 2 14-1.01774379E-05 2.93971417E-05 1.01932525E-04 3.52952039E-04-1.39757920E-04
 2 15-3.36171510E-05 1.22049662E-04
 3  1 1.05831337E-05-7.50221976E-05 5.41496684E-05 5.62628537E-06 2.50698653E-05
 3  2 2.56149973E-04-3.48471397E-04-2.43084042E-05-1.68325380E-04-4.84490879E-04
 3  3 3.80143893E-04 2.07560324E-04-1.63884637E-04 1.25752277E-04-1.23289974E-04
 3  4-8.61770364E-05 4.10728107E-05 1.77242826E-04 6.90053856E-06-2.21232855E-06
 3  5 2.79976084E-04-7.05495113E-03-1.48404950E-04-7.33736985E-06-4.87027333E-06
 3  6 2.49457341E-06 7.79849959E-06 2.74453221E-05 5.68033744E-06 2.08372568E-05
 3  7 9.85874995E-06 3.71203856E-05 3.68647685E-05-1.59494423E-05-1.02758522E-05
 3  8-8.99284891E-06 1.34768094E-03 4.75746554E-05 3.64569759E-06 1.66317228E-06
 3  9-4.01154449E-06-7.94874472E-05-5.66514366E-05 3.81256918E-05 5.15073365E-05
 3 10 1.57694688E-05 3.89498287E-05 2.94463582E-05-8.80933181E-06-1.60695376E-05
 3 11-1.75070796E-07 9.94550663E-01 2.11789636E-02 5.31050531E-04 4.76051616E-04
 3 12-7.69787447E-04 4.43930749E-03-2.78035628E-04-2.49807311E-04 3.83342160E-04
 3 13-4.22978754E-03-4.12298251E-03-4.25352515E-03-1.83226819E-05-7.27444128E-05
 3 14 5.30788302E-05 1.93186603E-05-1.32067804E-04-2.61034528E-05 1.39904900E-04
 3 15 3.63457800E-04-1.55114528E-04
 4  1 1.09827854E-05-7.31407471E-05-2.73985123E-05-5.17038758E-05 1.96996798E-05
 4  2 2.73292002E-04 1.98847306E-04 3.36583280E-04-1.20995320E-04-4.63287472E-04
 4  3 9.08754846E-05-3.76980027E-04 8.60317875E-05-1.03998723E-04 1.11288480E-04
 4  4-7.84432583E-05 1.39601465E-04-8.08696736E-05-1.03838051E-04 1.73935558E-05
 4  5 7.56467304E-05 9.94552758E-01 2.11983127E-02 7.97075836E-04-6.84708805E-04
 4  6-7.31091471E-05 4.37762926E-03-3.89930720E-04 3.55611471E-04 2.71058231E-05
 4  7-4.24857532E-03-4.21008101E-03-4.11686184E-03-4.40722380E-05 6.88815259E-05
 4  8 5.12005142E-05 1.02212865E-03 7.57966698E-06-3.04060654E-06-3.70087996E-07
 4  9 1.00274655E-05 1.26867791E-04-2.35944336E-05-2.04944244E-05-8.32650810E-06
 4 10-9.89213060E-06-6.49128519E-05-1.56392011E-05 3.78555458E-07-7.36807771E-06
 4 11 8.25338371E-06 7.05226834E-03 1.34870547E-04 1.65805138E-05 5.06590864E-06
 4 12-1.94160982E-05 1.62870179E-04 4.70868099E-05 1.12101713E-05 1.04730028E-04
 4 13-1.60857477E-05-4.45434095E-05-3.40334208E-05-9.65765521E-06 1.81221308E-06
 4 14 2.23759274E-05 3.55399661E-04-1.24938256E-04 2.89910636E-05-1.19909733E-04
 4 15 2.07089193E-05 1.16506203E-04
 5  1-2.68225039E-01 1.03061418E+00-2.85812125E-05 2.37438628E-04-2.63306330E-03
 5  2 6.00223188E-03 1.20771233E-04 1.88550736E-05-3.43377456E-04-1.76814787E-03
 5  3-3.84023202E-05 3.27712640E-05 1.88434724E-04 1.83624431E-03 1.88281906E-03
 5  4 1.77074612E-03-6.66376352E-07-3.28781669E-05-2.61478500E-05 4.80162892E-04
 5  5-1.96128384E-04-2.65161478E-04 6.46000570E-04-2.07417397E-04-8.03418503E-04
 5  6 2.64212208E-04-9.80047314E-04-2.17616157E-04 2.80946855E-05 7.41615161E-05
 5  7-4.59038273E-06 7.36798609E-04 1.20826665E-04 2.41352232E-04-4.71814711E-05
 5  8-2.86970459E-04-2.61564715E-04 5.88917050E-04-5.82823067E-04 4.87989752E-04
 5  9 3.48885898E-04-8.17684257E-04 3.76726857E-05 1.70233511E-04-5.27041275E-05
 5 10 4.01542830E-04 2.20678402E-04 1.45014339E-04-4.17095120E-04-2.63670485E-04
 5 11 2.66306541E-04-2.70377250E-04 6.28212434E-04 8.22983496E-04 1.75730608E-04
 5 12 2.27360582E-04-8.69877286E-04 9.52572841E-05-8.71823829E-05 2.54625619E-04
 5 13 7.99857546E-04 3.84913227E-05 5.78593430E-06 1.79942341E-04 2.66126562E-04
 5 14 9.98148234E-05 1.28211507E-04 3.55379849E-04 1.06371260E-04 3.17336922E-04
 5 15 1.26350441E-04 3.75754396E-04
 6  1 9.94217060E-05-4.01453525E-04 6.73336560E-01 7.30358854E-01-5.45349748E-02
 6  2 3.56460114E-04 1.26800470E-02 1.32691747E-02-1.19987392E-03-4.51161026E-05
 6  3-2.61451202E-03-2.88964980E-03-1.70921613E-04-4.85806826E-05-1.13446324E-04
 6  4-1.77108390E-04 1.02952806E-04-5.37347292E-04-3.06601726E-04-2.23566098E-04
 6  5 4.30706965E-04-9.88877079E-04 2.15643214E-03-4.75893929E-04-2.68700297E-03
 6  6 9.49097237E-04-2.50360374E-03-1.20759825E-03-2.11943489E-04 4.01293613E-04
 6  7-2.15083325E-04 2.09695371E-03 1.56576097E-04 7.41211530E-04-1.67985510E-04
 6  8-9.74282414E-04-3.57508042E-05-7.54380605E-05 3.35818017E-04 4.17110517E-04
 6  9-2.94497662E-05 5.07088284E-04-2.60777707E-04-1.21167720E-03 1.81999534E-04
 6 10-2.50343612E-04 1.48116384E-04-9.74061542E-05 3.32822710E-05 5.63609065E-05
 6 11-8.82642520E-06 8.71562981E-04-1.65429353E-03-2.27549651E-03-1.42029843E-04
 6 12-7.83444347E-04 1.25898727E-03-1.93473329E-04-1.86062146E-04-1.62029343E-04
 6 13-1.69622814E-03 2.45234564E-04 5.85609820E-05-3.13277777E-04-8.21645219E-04
 6 14-1.33470613E-04 4.12176434E-04 1.44153304E-03-4.77495851E-04-6.65690409E-04
 6 15 7.82994353E-05-7.60630528E-04
 7  1 1.67753965E-05-6.59639646E-05 7.26077148E-01-6.75449097E-01-8.00793178E-02
 7  2 7.62005605E-05 1.32977639E-02-1.25652483E-02-1.38056716E-03-4.22907375E-04
 7  3-2.63895067E-03 2.83127518E-03-1.20732691E-04 1.96823426E-05 1.87626768E-05
 7  4-4.72181463E-05-1.09042841E-04-4.52085929E-04 3.76258025E-04-1.40730375E-04
 7  5 5.14287812E-04 4.73522843E-04-6.57412517E-04 7.45325703E-04 9.04941695E-04
 7  6-4.64732884E-04-1.81192018E-04-7.51229592E-04 1.51775775E-04 2.19402489E-04
 7  7 3.29258711E-05-5.24544773E-04 1.38013570E-04-4.35601748E-04 2.38983434E-04
 7  8 3.88183723E-04-1.04173514E-03 2.19405043E-03-2.04128595E-03 1.70729821E-03
 7  9 1.33376783E-03-2.42145511E-03-7.39311056E-05 9.00661027E-04-1.08829537E-04
 7 10 1.10622679E-03 6.31795476E-04 3.20684429E-04-1.38525107E-03-9.32162218E-04
 7 11 9.18849028E-04 5.97509923E-04-1.37757175E-03-1.54780057E-03-7.66603017E-04
 7 12-6.11269002E-04 1.73180088E-03-3.38777542E-04 4.83393839E-04-3.56159323E-04
 7 13-1.32966065E-03-4.00207173E-05-1.56581543E-05-4.46756778E-04-5.80990749E-04
 7 14-2.27352827E-04 3.76938628E-04 9.29122737E-05 2.83580608E-04 1.39064498E-03
 7 15-1.70339904E-04-8.48215874E-04
 8  1-8.30268744E-04 3.39355888E-03 9.58461319E-02-1.43432688E-02 9.90418002E-01
 8  2-2.83274937E-03 1.49773223E-03-3.52650041E-04 1.80032679E-02 1.20957585E-03
 8  3-4.87341244E-04-1.30641119E-04-2.89135054E-03 1.23266384E-03 1.17096790E-03
 8  4 1.30682145E-03 5.89925982E-05-1.02605783E-04-6.45881111E-05 1.46468205E-03
 8  5-1.76285814E-03 3.30841312E-04-6.91151357E-04 3.45950025E-04 1.05032924E-03
 8  6 2.52635814E-04 7.22005594E-04 2.47431724E-04 7.94444118E-05-6.71964603E-04
 8  7 6.55494405E-05-8.44403185E-04 8.97406872E-05-3.35171605E-04 3.75100627E-05
 8  8 1.38213174E-04 3.51517652E-04-5.99346641E-04 8.37865576E-04-6.73345092E-04
 8  9 1.12692614E-04 3.08596220E-04 8.71863776E-06 2.22983873E-05-5.71524898E-04
 8 10-3.82962124E-04-2.94948382E-04 1.27802926E-04 5.40653660E-04 2.09877100E-04
 8 11-1.81002037E-04 4.51592907E-04-9.72146561E-04-1.45066009E-03-3.11276486E-04
 8 12 1.37312450E-04 1.09064529E-03-3.91748098E-04 2.79906010E-04-1.40950963E-03
 8 13-1.25024103E-03 3.38012073E-05 2.40773739E-04-3.04087945E-04-2.40507396E-04
 8 14-1.56239845E-04-1.16105989E-04-4.37016521E-04 1.82362142E-04-3.42563027E-04
 8 15-5.47436144E-04-9.30219175E-04
 9  1 2.09341473E-02-1.05733534E-01-5.77709152E-03-2.15224216E-03 3.08762745E-02
 9  2 1.61921149E-01 1.01364149E-02 2.88289047E-03-4.08131457E-02-1.39848917E-02
 9  3-4.25146953E-04-1.27410411E-04 3.19919110E-03 9.47238228E-05 9.60090227E-05
 9  4-2.41324812E-02-8.83709612E-04-2.24385730E-03 1.85920214E-05 1.11057732E-02
 9  5 7.70447614E-03-1.20697279E-01 2.72367059E-01 2.86339323E-02-3.87368941E-02
 9  6-2.45316909E-03 2.46051044E-01 1.34019444E-02-2.21543511E-02 8.84162577E-04
 9  7 1.44149434E-02 1.40707380E-02 3.42713893E-03 4.03154766E-03-5.76197931E-03
 9  8-4.74507646E-03-1.27008741E-01 2.86014303E-01-3.47986019E-02-1.40437704E-02
 9  9 2.51282223E-02 2.61805316E-01-1.99870335E-02-6.97107782E-03 1.55018757E-02
 9 10 8.86958954E-03 1.94391221E-02 3.97268535E-03-4.89575857E-03-5.79974923E-03
 9 11-2.06469473E-05-1.08348324E-01 2.44072504E-01 2.97728071E-02 1.95019014E-02
 9 12-2.57752929E-02 2.23352815E-01 1.97885684E-02 1.00241017E-02-9.90733180E-03
 9 13 1.42639791E-02 2.40881752E-03 1.21283411E-02 2.32623673E-03 6.09093311E-03
 9 14-3.81437606E-03 7.48893148E-02 2.22715500E-03 7.69401340E-02 1.38207663E-03
 9 15 6.72756050E-02 2.80082698E-03
10  1 1.57878425E-03-7.84126966E-03 6.29012540E-02-1.82587985E-02 1.93702504E-03
10  2 1.30851663E-02-1.05491496E-01 3.01232012E-02-2.24599495E-03 9.93608435E-05
10  3 7.16906180E-03-7.07123494E-04-7.05163082E-04 2.03725069E-02-1.97032115E-02
10  4-2.18141802E-03 2.86694941E-02 3.13739188E-02-9.36874684E-03 7.71025230E-04
10  5 9.22050495E-04-2.46545738E-03 5.25572136E-03-6.38677771E-03 4.53672676E-04
10  6 7.72593934E-05 7.49437128E-03 3.72094265E-03-2.89985676E-04-7.71582824E-04
10  7 4.29432383E-04 2.43332275E-04 7.40395536E-05 4.98602513E-04-8.08576807E-04
10  8-4.09116342E-05 1.40821911E-01-3.19860121E-01 2.66508861E-02 2.96988183E-02
10  9-2.70002332E-02-2.82937376E-01 9.87876648E-03 2.25915427E-02-1.03451771E-02
10 10-5.68394658E-03-2.04748318E-02-4.26591155E-03 8.73360476E-04 3.69473354E-03
10 11 1.94789263E-03-1.60530461E-01 3.65569289E-01 2.52539691E-02 2.91654659E-02
10 12-4.24069009E-02 3.19305594E-01 5.19177272E-03 1.16358694E-02-2.72622788E-02
10 13 1.22298723E-02 4.94005341E-03 1.95222752E-02 1.27625988E-03 6.87169937E-03
10 14-6.15689439E-03-2.55057450E-03-3.72569755E-03-9.19794966E-02 2.12172358E-03
10 15 1.04512956E-01-2.24984743E-03
11  1-1.09741649E-04 6.30844412E-04-2.05466332E-02-6.00350106E-02-1.62078680E-03
11  2-8.15358865E-04 3.57466766E-02 9.99892689E-02 1.52120939E-03 1.24367645E-03
11  3-9.43457275E-04-7.09763346E-03-1.27612563E-03-2.65619299E-02 2.90538325E-02
11  4-1.15562803E-03 2.77261358E-02-1.00027854E-02-2.71305448E-02-6.96232706E-04
11  5 4.96737308E-04-1.72975843E-01 3.93701631E-01 5.09889854E-02-3.50404573E-02
11  6-5.42792504E-03 3.45168366E-01 3.05177845E-02-8.97335145E-03-7.58356968E-03
11  7 2.26401728E-02 1.14471671E-02 5.09581474E-03 3.01971001E-03-7.80383650E-03
11  8-3.87637673E-03 9.33177527E-02-2.11730049E-01 2.21213929E-02 2.70635841E-02
11  9-1.76985674E-02-1.89392131E-01 7.44128626E-03 1.04754285E-02-6.99401158E-03
11 10-4.42799083E-03-1.40370040E-02-2.45109085E-03 9.31130806E-04 2.74587986E-03
11 11 1.93521423E-03 8.38903011E-02-1.91324112E-01-1.37450295E-02-9.26346851E-03
11 12 2.23840011E-02-1.66787557E-01-1.60417933E-03-6.53885886E-03 1.54972555E-02
11 13-6.54416410E-03-2.40548309E-03-1.06132291E-02 2.66377718E-04-3.71341651E-03
11 14 4.04824117E-03 1.12925406E-01-3.24455014E-03-6.45169988E-02-2.32732425E-03
11 15-5.30183414E-02 1.49579360E-03
12  1 4.05793232E-02-2.01302607E-01 3.08963404E-03-3.61931556E-03 1.08668030E-02
12  2 4.04485657E-01-4.10194964E-03 4.76090375E-03-3.93044581E-03-2.78590450E-02
12  3 2.61750594E-03-1.09606470E-03 1.04293357E-02-3.14215240E-03-1.20814253E-02
12  4-1.42454586E-02 3.94110256E-04-7.22588655E-03-2.18331074E-03 7.66978167E-02
12  5 6.88038842E-02 1.36477066E-02-3.42746518E-02-1.78008744E-01-1.71408629E-01
12  6 9.51558605E-02-3.58961799E-02-1.13236266E-01-1.04353907E-01 5.81206769E-02
12  7-1.85048232E-02 1.85808740E-02 6.94930723E-04 4.12129493E-03 5.75884607E-03
12  8-6.06705630E-03 8.82158910E-03-2.50982550E-02-1.01150393E-01 2.44765003E-01
12  9 3.49296244E-02-1.54146975E-02-6.50291484E-02 1.51629999E-01 2.00620414E-02
12 10 1.05971195E-02-1.44112305E-02 2.31383679E-03-1.28459102E-02-6.09298515E-03
12 11 1.13303943E-02 1.17183129E-02-3.11164386E-02 1.97332298E-01-1.01562070E-02
12 12 1.92101159E-01-2.71835969E-02 1.23168381E-01-7.27352888E-03 1.18375644E-01
12 13 1.91976346E-02-7.93913928E-04-1.89118906E-02 6.36545488E-03 4.94807916E-04
12 14 9.16667041E-03-1.19930606E-01-3.15488220E-02-1.24716682E-01-3.50711724E-02
12 15-1.28518803E-01-3.08948248E-02
13  1-7.09027679E-04 3.08115256E-03-9.41211515E-02 3.59160574E-02 3.30406607E-02
13  2-8.80818811E-03 2.06872640E-01-8.17857571E-02-7.12679795E-02-7.49689220E-03
13  3-5.57683358E-03 9.42089585E-03-1.08852697E-02 2.02378478E-04-6.42998555E-03
13  4 6.58305677E-03-4.54616812E-02-4.36220876E-02 2.36544775E-02-2.61185967E-02
13  5-1.01878956E-02 2.35312947E-02-5.02288657E-02 1.47511538E-01-3.32260813E-02
13  6-6.39531476E-02-9.30095069E-02 8.48131951E-02-2.61121045E-02-3.54884740E-02
13  7 8.65382438E-03 1.07682104E-03-8.95085760E-04-7.24137655E-03-2.21547247E-03
13  8 2.28620208E-03-2.41598497E-02 5.91914554E-02-5.19959381E-02 4.06531120E-01
13  9-1.49918985E-02 6.20396368E-02-8.76517791E-03 2.38790852E-01-2.20850818E-02
13 10 8.72060718E-03-1.89218827E-02 5.68717460E-03-1.40554030E-02 1.67580276E-04
13 11 1.53588914E-02 1.11381439E-02-3.09928453E-02-1.31503931E-01 1.71391979E-02
13 12-2.27751795E-01-1.41490419E-02-6.17041896E-02 1.46975498E-02-1.35782387E-01
13 13-1.05660218E-02-4.73660733E-03 1.36584992E-02-3.78303750E-03-2.43166868E-03
13 14-9.82955672E-03 7.38926499E-02 3.48393486E-02-2.00080434E-01-8.33939930E-02
13 15 1.26307610E-01 4.80618862E-02
14  1 2.93019805E-04-1.46704120E-03 4.24761029E-02 8.92365915E-02-1.42996979E-02
14  2 1.84127977E-03-9.96896450E-02-1.96220732E-01 3.30114535E-02 5.55478214E-03
14  3 8.07945387E-03 4.74335281E-03 9.26696633E-03 6.26619887E-02-6.13471593E-02
14  4 8.88326171E-04-8.58567552E-04 6.30709011E-03 3.53467635E-02 1.79933554E-02
14  5 4.88419898E-03 2.25018516E-02-5.55255721E-02 3.46105535E-01 1.57877445E-01
14  6-1.39113747E-01-5.32802285E-02 2.12832506E-01 7.04206753E-02-7.83313644E-02
14  7 2.53343501E-02-1.61902381E-02-5.65925874E-03-6.56280450E-03-9.86918672E-03
14  8 5.14831757E-03 2.42797360E-03-5.68500098E-03-4.39901828E-02 5.73564549E-02
14  9 1.54853526E-02-1.39716169E-02-2.36402926E-02 3.96299650E-02 4.72781550E-03
14 10 4.01738375E-03-6.02893373E-03 6.49435311E-04-7.20943349E-04-2.40534487E-03
14 11 1.23209208E-03-2.65647312E-02 6.18376952E-02 1.34118482E-01-1.22888454E-01
14 12 2.62008939E-01 8.26023003E-02 6.23343610E-02-8.21274027E-02 1.55217969E-01
14 13 1.10906465E-02-8.68590538E-04-1.72939502E-02-1.67821728E-03 1.85491573E-03
14 14 1.19598627E-02 1.95672732E-01 8.29298057E-02-2.79602448E-02-1.03155463E-02
14 15-1.54751680E-01-6.75632997E-02
15  1 1.25283433E-02-6.11154434E-02-6.39465967E-02 1.11222067E-02-1.09696915E-01
15  2 1.31311921E-01 1.42712959E-01-2.87948602E-02 2.70088248E-01 3.53872726E-02
15  3-4.60382521E-04-1.88929686E-02 6.71228484E-02-3.35479727E-02 1.16971782E-02
15  4 2.88958018E-02-1.28238805E-02-1.44388557E-02-4.61231820E-03 1.59693654E-01
15  5 1.16644879E-01 1.19514040E-02-3.23956015E-02 1.40753919E-01-1.54370323E-02
15  6 2.11441304E-01-3.25263237E-02 9.55749793E-02-1.60984098E-02 1.52573885E-01
15  7 3.50357867E-03-2.51822872E-03-2.18911851E-03-6.96354704E-03 5.58164891E-03
15  8-1.10728851E-02 2.81870456E-02-6.58528627E-02-3.39103666E-02-4.97507470E-02
15  9 3.27157359E-01-1.15640863E-01-2.41118683E-02-3.55156425E-02 2.33486658E-01
15 10-3.84126327E-03-1.63132205E-03 1.20067885E-02 3.95837877E-03-1.32851419E-02
15 11-4.24627918E-03-2.65489376E-03 4.28109776E-03-2.17457626E-01-2.75500362E-02
15 12-3.64601271E-02 3.47045338E-02-1.32957188E-01-1.35243761E-02-2.55704415E-02
15 13-1.01198036E-02-4.58850591E-04 7.70541383E-03-5.75112484E-03 7.80833590E-03
15 14-1.86954850E-03 2.78472596E-02 1.92336482E-02 5.10638458E-02 2.15615986E-02
15 15 4.53359742E-02 3.59883570E-02
16  1-1.23769806E-02 6.29091996E-02-8.34293491E-03-6.05569951E-02-3.51130329E-02
16  2-1.31400549E-01 1.89964961E-02 1.36820850E-01 7.24425231E-02 1.82281436E-02
16  3 6.42068644E-03 9.88554840E-03 2.73922855E-02 3.28223270E-02-2.77445607E-03
16  4-1.18971137E-02 1.84561138E-02-2.45512902E-02-1.87709739E-02-1.05621818E-02
16  5-3.61980042E-02-3.40308432E-03 1.48175621E-02-2.37956072E-02-1.60115453E-02
16  6 1.18692731E-01-1.67147727E-02-1.25509779E-02-3.00501351E-03 8.03649530E-02
16  7 3.56942740E-04 1.68729902E-03 3.41955418E-03-1.33287541E-03 3.07955480E-03
16  8-4.28307131E-03-4.38790010E-02 9.91571701E-02 3.78610737E-01 1.25189743E-01
16  9-1.15206992E-01 1.94555006E-01 2.82603034E-01 9.59408059E-02-8.59011576E-02
16 10-1.83301829E-02 1.77965067E-04 1.85153974E-04-8.93281650E-03 1.48586770E-02
16 11 5.93522641E-03-3.94361123E-02 9.11584755E-02-2.46284500E-01 9.35956598E-03
16 12 2.61045412E-01 1.65779677E-01-1.86215038E-01 7.53049666E-03 1.92828531E-01
16 13-1.10077495E-02 6.04483502E-03-8.89883269E-03-3.82412468E-03 1.37741999E-02
16 14 6.96550941E-03-3.02533493E-02-2.99365704E-03-7.37112380E-02-4.28227045E-02
16 15-7.55680871E-02-3.98523079E-02
17  1-9.95819605E-03 4.99931534E-02-1.75822885E-02 6.91152926E-02-7.77544786E-03
17  2-1.07810141E-01 4.04592346E-02-1.58685596E-01 1.34661572E-02 1.81010758E-02
17  3-4.89548925E-02 1.40316067E-02 1.82680236E-02-9.98364418E-03 2.73315475E-02
17  4-7.57698138E-03-5.33393616E-02-1.55904660E-02 4.05215873E-02-2.47197477E-02
17  5-4.75486830E-02-4.89441196E-02 1.13811630E-01-2.54567240E-01 4.06018224E-01
17  6 2.98909433E-02 2.17048886E-01-1.97284165E-01 2.97500392E-01 2.79521301E-02
17  7-7.65126094E-03-1.67907636E-02 8.70295938E-03 2.09693772E-02 1.75299259E-03
17  8-7.39519960E-04-8.10889390E-03 1.79941246E-02-1.77857185E-01 1.23248255E-01
17  9 5.72505818E-02 2.05282003E-02-1.20340354E-01 7.59086431E-02 3.42474238E-02
17 10 8.50461427E-03-1.00939030E-02 1.88732885E-03-9.17840247E-04-5.44218396E-03
17 11 3.36847229E-03-1.68957851E-02 4.50395911E-02-1.50751972E-01-1.95380679E-01
17 12 5.23883137E-02 5.78973042E-02-1.07457643E-01-1.48369839E-01 3.39858218E-02
17 13-2.26335808E-03-9.21974955E-04 2.99910420E-03-1.16774063E-02 6.32654569E-03
17 14 5.04081818E-03-9.33480737E-02-4.01230351E-02-5.41740970E-02-2.55451367E-02
17 15-3.08177928E-02-1.69059911E-02
18  1 3.26619090E-03-1.55046707E-02 4.82673052E-02 2.44267579E-02-3.49408637E-02
18  2 3.51190531E-02-1.15660154E-01-5.95725643E-02 8.82449236E-02 4.40661233E-03
18  3 1.97385031E-02 6.43860392E-02 5.40171740E-03 4.45466477E-02-6.08100645E-02
18  4 2.16542064E-02-6.55507999E-02 3.21908187E-02-7.18370867E-03 6.35634397E-02
18  5 7.43941900E-02-4.88546870E-03 1.53518948E-02-5.40991156E-02 2.73362728E-01
18  6-1.30625579E-01 2.62185981E-02-5.22072048E-02 1.85817451E-01-1.00902216E-01
18  7 5.79789363E-03-1.13099806E-02 4.72227733E-03 1.08078170E-02-4.97661685E-03
18  8 2.99868086E-03-1.12949612E-02 2.34644009E-02 1.59199346E-01 8.06852619E-02
18  9 1.63343748E-01 5.73766623E-02 1.25739583E-01 6.41524324E-02 1.31833547E-01
18 10-8.83110757E-03-4.48145052E-03 8.52623730E-03-5.16060483E-03-1.41590323E-03
18 11-4.58262871E-06 2.47221786E-02-5.66728824E-02 1.36993873E-01 4.23208484E-01
18 12-7.27234619E-03-1.17073378E-01 8.98379191E-02 3.28161834E-01-9.18222551E-03
18 13-3.93182443E-05 1.05366768E-02-2.16226473E-03 1.59839316E-02-3.53614407E-03
18 14-1.21173467E-02 1.69856966E-02 4.09143168E-03-3.14451816E-02-4.21082554E-03
18 15 4.52725244E-02 2.92371023E-02
19  1 2.44643062E-03-1.21787175E-02 3.60243678E-02-2.90150243E-03-3.12486992E-02
19  2 2.37612454E-02-8.52578794E-02 7.21934166E-03 7.89850309E-02 2.62417821E-02
19  3 3.55385662E-02 2.65632989E-02-2.31080259E-03 1.02425576E-03-1.75810584E-02
19  4 2.17826478E-02 3.34770069E-02 3.31323119E-02 4.71441520E-02 5.46159358E-02
19  5 5.97831087E-02 2.49238527E-04 4.30704262E-03 1.18015821E-01 2.08634221E-01
19  6 4.05034739E-01-8.39328650E-03 9.88777512E-02 1.60501303E-01 3.27994294E-01
19  7 1.01010746E-02-1.12700581E-02 4.79665441E-03 1.27249328E-03 9.51408035E-03
19  8-1.68819920E-02-1.57734552E-02 3.85118510E-02 6.41795646E-02 1.69550412E-02
19  9-2.65639979E-01 7.16961689E-02 3.62641289E-02 1.51449809E-02-2.11262429E-01
19 10 2.48874647E-03 3.00347536E-03-7.69916384E-03-2.87705750E-03 1.07280213E-02
19 11 5.93801728E-03 1.68983181E-02-4.27590010E-02 2.22986961E-01-2.65905147E-02
19 12-1.63020469E-01-7.10482029E-02 1.64520739E-01-3.14293855E-02-1.36797568E-01
19 13 4.78978411E-03-6.72772434E-03 3.99706559E-03 3.08042171E-03-1.10539420E-02
19 14-2.42869417E-03 4.15667099E-03-6.31135433E-03-3.76200220E-02-1.55726795E-02
19 15 3.83093323E-02 1.26238042E-02
20  1-2.63243190E-03 1.26043209E-02 6.00810124E-03 4.37836960E-03 1.48709052E-02
20  2-2.90708521E-02-1.48049785E-02-7.63467749E-03-4.05136341E-02-5.87895144E-04
20  3 5.88629553E-02-2.94452627E-02 6.36420658E-03 2.37524135E-02-4.57920723E-03
20  4-2.16853272E-02 3.16100732E-02 4.07208886E-02-1.86325426E-02-4.03170264E-02
20  5-5.53174878E-02-8.45613948E-03 1.76212161E-02-6.70622421E-02-3.77248016E-03
20  6-4.68602720E-02 4.11747866E-02-5.54772424E-02 2.26906335E-03-3.98152237E-02
20  7-4.43232858E-03 1.82125116E-06-4.11775977E-04 2.47428232E-03-4.30499999E-04
20  8 2.62898129E-03-2.84106183E-03 1.10715925E-02 3.51384970E-01 4.92286150E-02
20  9 2.80831977E-01 2.34329826E-03 2.77425959E-01 4.19065012E-02 2.34387684E-01
20 10-1.65627546E-02 3.52104634E-03 1.67989091E-02-7.06909806E-03-8.52231318E-04
20 11-2.38003790E-04-1.03307575E-03-1.92060664E-03 2.35086969E-01-3.21603543E-01
20 12-1.62447551E-01 8.55109188E-03 1.77764031E-01-2.60750618E-01-1.28967893E-01
20 13 8.68590210E-03-1.47422026E-02 2.44705785E-03-7.12761860E-03-1.30124836E-02
20 14 3.25179870E-03-2.32173807E-02-1.76170792E-02-9.22998857E-03-1.21320695E-02
20 15-6.70882396E-03 8.80812640E-03
21  1 8.06735746E-03-4.03030803E-02 1.32006893E-02 5.79982642E-03-9.17100665E-02
21  2 7.38253994E-02-3.31956546E-02-1.59947893E-02 2.38692207E-01 7.19828073E-02
21  3-8.56343058E-03-2.29339269E-02-6.31462783E-02-6.22501638E-02-3.79017397E-02
21  4 1.28201976E-01 1.65621418E-02-1.38541122E-02-2.77041545E-02 2.39757739E-01
21  5 3.39614438E-01 1.72100312E-03-1.72275019E-03-9.38296499E-02 1.44043997E-02
21  6-2.95898767E-01-7.31285031E-03-7.52789671E-02 7.09485792E-03-2.43661714E-01
21  7-2.32384585E-03-5.72130571E-04 3.06909920E-03 3.92947635E-03-9.44114468E-03
21  8 1.08939699E-02-2.60910127E-03 1.20951827E-02 9.39214935E-02-3.26101172E-02
21  9-2.52973657E-01 5.27640073E-03 7.00584195E-02-1.64629514E-02-2.03927984E-01
21 10-5.54985303E-05 5.48004453E-03-4.06119919E-03-7.95125648E-04 9.42118404E-03
21 11 3.87867270E-03 1.41006223E-02-2.48499926E-02-6.31751992E-02-1.63038654E-01
21 12-1.04667164E-01-7.77509508E-02-4.44417043E-02-1.30373052E-01-8.42449824E-02
21 13-3.27529023E-04-2.78626389E-03 1.17078461E-02-6.98704430E-03 7.86611321E-04
21 14 6.56599945E-04 1.80543155E-03 1.76350165E-03-1.20562645E-02-9.91548407E-03
21 15 3.53050132E-02 1.72224563E-02
22  1 4.51494411E-03-7.12931429E-02 3.20940746E-04 3.42079394E-02 1.81037720E-02
22  2-1.57043177E-01-1.24287726E-03-6.71516031E-02-4.40233393E-02 9.99532497E-01
22  3-8.28203285E-03-7.17125264E-01-2.37466826E-01 2.48866682E-02 2.92507712E-02
22  4-4.54494737E-03 1.22494639E-02-8.06432732E-03-3.25685910E-02-5.41739066E-02
22  5-3.03137268E-01 1.12986901E-02-2.03236574E-02-2.68770318E-02 5.43779066E-02
22  6 7.37114742E-02-1.14879785E-01-8.64162008E-02 9.89781820E-02 1.10972250E-01
22  7-1.33125057E-03-3.01928051E-03 2.19442151E-03-1.11259031E-03 6.59927570E-03
22  8 2.63828199E-03 7.74914363E-02-5.10635311E-02 9.31268673E-02 1.01817425E-01
22  9-3.92625973E-02-9.87792172E-01 1.84663033E-01 1.90973777E-01-8.31852264E-02
22 10 4.71596634E-02 3.45948199E-02 5.12716263E-02 8.11137542E-04 5.14916466E-03
22 11 5.14802788E-04 5.61474390E-02-3.98803998E-02-5.22131914E-02 5.58296950E-02
22 12 8.71108777E-02-6.95193773E-01-1.07314997E-01 7.72364429E-02 1.55018269E-01
22 13 2.78603281E-02 3.96788218E-02 2.76521011E-02-2.83242713E-03-1.61765836E-03
22 14-1.68184357E-03-1.65054383E-03 2.21432411E-01 3.59166281E-02 5.28631573E-01
22 15 3.36796235E-02 3.74998667E-01
23  1-6.11507246E-03 6.41605420E-02 1.14944362E-02 5.12014294E-02-1.33855898E-03
23  2 7.59699054E-02-2.34067870E-02-1.18643630E-01-3.60671552E-03-7.47737627E-01
23  3-3.77538576E-01-9.21940313E-01 2.82598742E-01-2.13254929E-02-1.10883818E-02
23  4-1.88136620E-02 2.45615347E-02-1.44378315E-02-5.02362453E-02 3.78769196E-02
23  5 1.17141923E-01-9.29989373E-02 6.11290908E-02 9.27422033E-02-4.34061664E-02
23  6 1.27817973E-02 1.17161729E+00 1.48374183E-01-1.16507521E-01 1.08895789E-02
23  7-5.08377450E-02-5.08690904E-02-6.40824777E-02-6.04018381E-04-3.31956536E-03
23  8-2.42803049E-03-2.26702058E-02 2.76208586E-02 5.15474315E-02 5.29325102E-02
23  9-3.55163285E-02 2.24307148E-01 6.10076607E-02 1.27166161E-01-3.89469986E-02
23 10-5.63197251E-03-1.53162731E-02-8.46165750E-03-6.59779267E-03-4.37183543E-03
23 11 3.79111672E-03-6.09277419E-03 1.42354111E-02 3.10930556E-02 1.14776749E-01
23 12-4.40805010E-02 6.23887099E-02 4.04469316E-02 2.04616649E-01-1.03726571E-01
23 13 1.88637462E-03 2.51929590E-04 6.38581708E-03 7.07923947E-04 3.95557626E-03
23 14-9.52197334E-03-5.86071203E-02-4.54983173E-01-3.53670867E-02-1.37204345E-01
23 15 1.84199747E-02-1.42446434E-01
24  1-4.33383507E-03 1.73392722E-02-5.96444736E-02 6.40554222E-03 1.39000283E-02
24  2-6.58733799E-02 1.37356989E-01-6.73970061E-03-7.84881865E-02 3.02328715E-02
24  3 1.15538809E+00-2.26695747E-01 3.24950108E-01 6.45215852E-03-2.71388349E-02
24  4 4.27315144E-03 5.63263518E-04 5.60787872E-02-7.00922285E-03 6.26773621E-03
24  5-1.02752782E-01-9.77196242E-03 1.38039584E-02-9.26570702E-02 4.11410140E-02
24  6-4.69028204E-02 8.19788774E-02-1.66839739E-01 6.07772134E-02-7.80538442E-02
24  7-1.43931535E-02 3.62897875E-04-2.13500327E-03 5.29846102E-04 6.26683156E-03
24  8-4.20101653E-04 4.56775920E-02-1.75677290E-02-6.17517301E-02 1.94895113E-02
24  9-9.71206136E-02-6.20384688E-01-8.54093202E-02 2.64150301E-05-1.59368897E-01
24 10 3.35311405E-02 3.16301539E-02 3.21672638E-02 1.96688073E-03 3.25245598E-03
24 11 4.34584089E-03-7.42585737E-02 4.86556905E-02-5.49949723E-03 8.37313130E-02
24 12-4.08922503E-02 9.44694956E-01 1.34834123E-02 1.51997864E-01-9.04565352E-02
24 13-4.27797490E-02-4.52456054E-02-4.48013053E-02 1.79444811E-03 5.77685157E-04
24 14-6.52240240E-03-3.15062545E-02-1.20683111E-01 2.92120266E-02 2.01887111E-01
24 15-6.42718360E-02-3.76068760E-01
25  1-1.26386699E-02 1.01912104E-02 1.80294738E-02-3.18883323E-02 6.17686069E-02
25  2-3.65826232E-01-5.15661039E-02 1.06660334E-01-3.20080751E-01 8.61081374E-01
25  3-7.21764926E-01 7.13950606E-02 1.42015320E+00 1.03822328E-02 9.83354759E-03
25  4-4.33950357E-02-1.78507257E-02-2.80325953E-02 2.49109417E-02-4.56359188E-02
25  5-8.37052098E-01 2.17103483E-02-2.04939361E-02-2.80778883E-02-5.01642144E-02
25  6-5.57536861E-02-2.85805451E-01-8.77609785E-02-7.97588791E-02-1.13219404E-01
25  7 1.48152450E-02 1.17055007E-02 6.54542285E-03-5.94648423E-04-6.11149606E-03