 ! Water decamer SECIM(0.003)-CR-CC(2,3)/6-31G*
 ! E_RHF            = -760.251760
 ! E_CIM-MP2        = -762.157465  E(CORR) = -1.905705
 ! E_CIM-CCSD       = -762.232088, E(CORR) = -1.980328
 ! E_CIM-CR-CC(2,3) = -762.256808, E(CORR) = -2.005048
 ! See Table S1 in JPCA 114,8644 (2010) for CIM-CCSD
 $contrl cimtyp=secim scftyp=rhf mult=1 maxit=100 $end
 $ciminp 
     submtd=mp2
    !mtdcim=2
    !submtd=ccsd 
    !submtd=cr-ccl
    zeta=0.003 
 $end
 $system mwords=500 $end
 $scf dirscf=.true. soscf=.false. diis=.true. damp=.true. $end
 $basis gbasis=N31 ngauss=6 $end
 $basis ndfunc=1 npfunc=0 diffsp=.f. diffs=.f. $end
 $GUESS GUESS=MOREAD NORB=74 PRTMO=.F. PURIFY=.T. $END
 $data
# title
C1
 O   8.0      1.68755200      3.70896500     11.87510000
 H   1.0      1.24689400      4.55055900     11.99245700
 H   1.0      2.61933300      3.91260900     11.95600400
 O   8.0      0.69169700      6.29891600     11.85800200
 H   1.0      1.55008200      6.72207200     11.87662900
 H   1.0      0.18698100      6.75009800     12.53470700
 O   8.0      0.07559700      5.69227900      9.22266700
 H   1.0      0.25525800      4.75209800      9.22668000
 H   1.0      0.19743300      5.96377600     10.13243500
 O   8.0      1.98078200      6.57003600      7.54335300
 H   1.0      1.25771800      6.33102400      8.12325400
 H   1.0      1.55887600      6.99312700      6.79554200
 O   8.0      5.17751000      4.79944400      9.30125900
 H   1.0      4.47082300      4.44646000      8.76067700
 H   1.0      5.97378900      4.41109300      8.93883000
 O   8.0      3.23501800      7.32885000     11.83839100
 H   1.0      3.73616000      8.01792200     12.27458900
 H   1.0      3.48461600      7.39731300     10.91684500
 O   8.0      4.01240300      7.30750200      9.27058500
 H   1.0      3.32026000      7.16797100      8.62428700
 H   1.0      4.54470800      6.51313200      9.22745200
 O   8.0      4.21893800      4.72572300     11.89811900
 H   1.0      3.95359200      5.64162200     11.98149700
 H   1.0      4.62980300      4.67249900     11.03522200
 O   8.0      3.08231000      4.04016000      7.79803300
 H   1.0      2.38706900      3.60423500      8.29082100
 H   1.0      2.71067800      4.88915500      7.55859600
 O   8.0      1.00621400      3.08739200      9.35664300
 H   1.0      1.27965800      3.22176700     10.26405900
 H   1.0      0.57488300      2.23288900      9.36000700
 $end
 
--- CLOSED SHELL ORBITALS --- GENERATED AT Tue Feb 15 08:03:32 2011
# title                                                                         
E(RHF)=     -760.2517595768, E(NUC)=  743.7638579974,   11 ITERS
 $VEC   
 1  1-8.08748345E-05-9.09676020E-05 1.63989842E-05-6.74779566E-06-1.92765839E-05
 1  2 4.89409697E-04-1.48966999E-04 1.95863967E-04 8.96432777E-05-3.70062372E-05
 1  3-9.44745536E-06-5.41460499E-05-3.53690498E-05-1.09343354E-05 1.18301501E-05
 1  4-1.07978080E-04-6.84187003E-04-1.60039759E-07 7.04664558E-05 9.94527960E-01
 1  5 2.10118610E-02 2.87774696E-04 9.07746903E-04 7.56141760E-04 5.21851826E-03
 1  6-9.24154069E-05-5.88097529E-04-5.29445984E-04-4.44623267E-03-4.28735274E-03
 1  7-4.31457906E-03-1.31594994E-05 1.31346078E-04-7.92018975E-05 2.85997160E-04
 1  8-1.34791600E-04 3.89456122E-04-2.01517631E-04-1.03199891E-04-1.20790250E-04
 1  9 1.30120269E-05-2.05139533E-05-2.19821828E-05 6.40074364E-04-1.85351019E-05
 1 10 1.50069785E-04 3.10764610E-04-7.68659162E-05-7.46806729E-05-4.84730092E-06
 1 11 1.60044963E-06 8.53290178E-06 3.22670303E-05-5.40908058E-08 1.28611148E-04
 1 12-1.22997969E-04-8.73667237E-04 3.77849607E-06 2.25316266E-05-4.94536812E-06
 1 13-7.17688801E-07 3.15483104E-06-1.20120314E-04 3.14258755E-05 5.10918890E-06
 1 14-2.23855624E-05 1.38883736E-05 1.72915537E-05 1.52370147E-05-6.43223506E-07
 1 15-7.26615341E-07 1.57471415E-06-8.37114395E-06 1.28508476E-04 8.66522312E-06
 1 16-1.14090070E-05-9.40976145E-07-1.41955540E-06-2.58271306E-07 3.71593592E-07
 1 17 6.25144763E-08 5.92009672E-06 5.88523057E-07-1.07957986E-06 6.24639790E-07
 1 18-5.49669009E-07-7.80736660E-07-4.47467949E-07-1.60008259E-07-2.20861935E-07
 1 19-2.18697632E-07 3.88046482E-07-1.10882089E-06-1.16803143E-06-1.48134933E-07
 1 20-8.87150326E-04 1.73664388E-05-1.68908330E-05-1.71553850E-05-9.07879324E-06
 1 21-1.56423114E-04 5.73131893E-05 6.07008117E-05 4.53221015E-05 2.81054692E-05
 1 22 5.73758749E-05 5.02275777E-05-7.41899417E-06 5.85998546E-06 7.32175236E-06
 1 23-2.89297070E-05-1.08310496E-05 1.74637599E-05 3.14694612E-05 1.34454629E-07
 1 24 4.32830852E-06 8.93575885E-07 1.31159454E-06-1.56646761E-06-2.05552926E-05
 1 25 1.22124013E-06-3.13685949E-06 6.83074681E-07 2.65498540E-06 1.71082754E-06
 1 26 1.20772209E-06 4.98744462E-07 3.25320338E-07-3.88244984E-07-5.33549918E-06
 1 27 1.73671719E-05 9.43772579E-07-3.42335099E-06-1.21449496E-06 3.91567914E-06
 1 28 4.27413390E-06-2.50143282E-06 1.75361751E-06-2.45128203E-05-3.30065600E-06
 1 29-1.47359758E-06-6.46282601E-06 1.47323840E-06-4.52485348E-06-2.15674504E-06
 1 30-3.75859772E-06 5.35880116E-07-3.18084238E-07 9.75876696E-09 4.68719991E-05
 1 31 2.90939216E-06-1.17235166E-05-5.05795853E-07-2.89984260E-06-3.07114495E-07
 1 32 7.79052148E-07 9.60104700E-07 2.09319817E-05 2.54324326E-07-2.08949627E-06
 1 33-2.39677713E-06-3.04345050E-06-2.39686365E-06-2.05151310E-06 7.39768265E-07
 1 34 1.30880241E-06 2.77385624E-07 5.29340593E-06-1.88569793E-05 3.46506409E-06
 1 35-1.37663668E-05 5.17164558E-06 2.66802894E-05 5.38025727E-07-1.92939239E-06
 1 36 2.15661874E-06-1.40913042E-04 2.19685672E-08-2.99443283E-06-2.82072851E-05
 1 37 1.54250556E-05 1.18443111E-05 1.91821186E-05 3.11368016E-07-2.83910099E-06
 1 38 5.68722749E-06-1.37143885E-05 1.43399582E-04 1.38812096E-05-1.29323450E-05
 2  1-7.91443133E-07 9.40318268E-06-3.86801599E-06-6.41730562E-06 2.89549566E-06
 2  2-8.15786121E-05 9.88971079E-06 8.44018084E-06-1.29332390E-05 4.92949917E-06
 2  3 1.20400012E-05-8.77931829E-08 5.28263146E-06 8.62258121E-07 1.31537454E-06
 2  4-1.75350108E-05 9.58931869E-05-1.88484817E-05 7.32672876E-05 8.74743070E-04
 2  5-1.23759394E-04-2.18146134E-05-2.14753281E-05-9.39716649E-07 7.71598384E-04
 2  6 3.07789178E-04 1.95177961E-04 2.37451643E-05-2.79937592E-05-7.35811908E-05
 2  7-8.95701567E-05 3.81887025E-05-7.68121919E-06 7.25377294E-06-1.21166424E-04
 2  8-9.99154652E-04-4.89195653E-05 9.89648033E-05 3.28318901E-06 1.97133153E-05
 2  9-2.54470948E-06 2.79689029E-06 4.20626673E-06-1.06316358E-04 1.75597524E-06
 2 10-1.67608552E-05-2.75936837E-05 1.52865154E-05 1.41114628E-05 1.30187202E-05
 2 11 5.21479308E-07 2.73597380E-06 7.82009774E-07 4.13673568E-06-1.87821069E-05
 2 12-1.09100870E-05 1.18022210E-04-1.40286649E-06 1.06098567E-05-7.57582368E-07
 2 13 3.40231935E-07 8.42684173E-07-5.04208885E-05 2.35124659E-06-2.85738294E-06
 2 14-7.84983167E-06 6.66595840E-06 8.55173124E-06 7.23380349E-06-5.42761910E-07
 2 15-1.99633969E-06 2.66309344E-07-5.15493877E-06 3.10801654E-05 4.41374012E-06
 2 16-3.01294375E-06 8.79447676E-07 1.15107615E-05 2.10888276E-06-1.51710127E-06
 2 17 4.66835857E-08-4.75182934E-05-4.05104160E-06-3.66697616E-08-6.78128267E-06
 2 18 5.81900826E-06 5.64672019E-06 4.54329229E-06 1.21303040E-06 1.19989812E-06
 2 19 2.30491123E-06 2.06628837E-06-4.99317794E-06 7.43919257E-06 1.98405387E-06
 2 20 9.94520217E-01 2.10223596E-02 7.52586115E-04 8.10459095E-04-3.69522537E-04
 2 21 5.26968190E-03-5.06429366E-04-5.89849369E-04 1.08668435E-04-4.26898739E-03
 2 22-4.35831127E-03-4.45220430E-03-9.32700530E-05-3.73966928E-05-9.28155631E-05
 2 23 4.00541473E-04-1.94931200E-04 2.59350062E-04-1.47467168E-04-1.07719435E-04
 2 24 5.42410859E-05-1.01180276E-05-8.16421535E-06 1.24430291E-05-2.36717429E-04
 2 25 3.40229617E-05 3.58011602E-05-4.23873335E-05 5.69189625E-05 6.45185475E-05
 2 26 2.32350031E-05 2.72771522E-06 1.51394324E-05 1.54263377E-07 7.55785975E-06
 2 27 4.46211899E-05 4.99719169E-06 6.01418970E-05-8.32176105E-05-7.28949104E-05
 2 28-6.67941897E-06-1.28567780E-05-1.38696312E-05 3.84053213E-04-3.01158376E-05
 2 29 1.98908718E-04 6.79966473E-05-3.99156127E-05 1.20660426E-05-3.77501560E-05
 2 30-1.30712149E-05-1.26518173E-06 1.09886896E-05-9.80215063E-05-5.70146119E-04
 2 31-8.29290302E-06 9.52193752E-05-1.35729417E-07-6.18354669E-08 4.91557898E-08
 2 32 4.26735872E-07 4.73057140E-07 1.43092541E-06 5.59982536E-07-1.18027489E-06
 2 33-1.05314441E-06 6.15609126E-07-7.55171893E-07 5.29517609E-07 2.45144044E-07
 2 34 4.45582678E-09-1.26506824E-07-2.37474103E-08 1.41442850E-06 2.46100450E-06
 2 35-5.69403939E-06-1.99832119E-06-5.72522610E-06 6.08330635E-08 2.96209422E-07
 2 36-9.32952314E-07 2.99024618E-05-1.76398201E-07 1.77234233E-07 6.46486321E-06
 2 37-3.84047341E-06-2.78495567E-06-4.56474029E-06 1.24339140E-07 8.05760201E-08
 2 38-1.11591503E-06 3.84155540E-06-2.97897340E-05-3.50473007E-06 3.24921176E-06
 3  1-2.24956947E-07-3.54253464E-07-2.57566123E-07 3.40909991E-07-6.43285846E-07
 3  2 2.86246777E-06 8.23036277E-07-1.26394180E-06 1.22342585E-06 1.06526257E-07
 3  3-4.15057788E-07 1.60154351E-07 6.31117561E-07-1.63526925E-07 4.41670628E-07
 3  4 2.07996378E-06-4.55206665E-06 2.66797848E-07-8.38502435E-07 3.49542832E-06
 3  5 8.52606465E-06 2.47481600E-08 6.50976162E-07 5.58397650E-08-3.87661508E-05
 3  6-1.03377489E-06-3.61755366E-06 4.12613518E-06 5.78766386E-06 6.36704406E-06
 3  7 3.87740662E-06 2.13658830E-07-1.33242741E-07-1.43803654E-06-3.89204220E-06
 3  8 2.17261530E-05 4.28747579E-06-1.96183629E-06-1.38212198E-04 5.60007947E-05
 3  9 1.89658587E-05 1.75750359E-06-4.55696535E-06-2.46548295E-04-7.03743757E-05
 3 10 1.19824172E-06 1.42237373E-05 4.43002293E-05 5.70425438E-05 5.03655390E-05
 3 11-1.30225571E-05 2.41775065E-05 9.00544887E-06 9.89809212E-06 5.80619900E-05
 3 12 6.45039390E-06 4.08922865E-05 9.94524997E-01 2.10264235E-02-1.12641603E-03
 3 13 2.34903785E-04-2.73625089E-04 5.21799012E-03 6.85360253E-04-2.13542356E-04
 3 14 2.93281099E-04-4.33359058E-03-4.27036327E-03-4.44814292E-03 2.30226888E-05
 3 15 1.05375832E-05 1.38475769E-04 2.61718416E-04-1.27949589E-04 4.00692657E-04
 3 16-2.03249702E-04 4.51522847E-06 2.20330888E-05 8.80775816E-07-2.83252276E-06
 3 17-8.17356173E-07-1.18383841E-04 1.14631754E-05 7.97330276E-06 1.75678946E-05
 3 18 1.31851356E-05 6.79019628E-06 1.48003931E-05 2.57067909E-07 4.53382267E-06
 3 19-3.61165810E-06-1.30170819E-05 1.29264236E-04 1.29718071E-05-1.13262209E-05
 3 20 9.73195355E-06 2.40890734E-05 8.66866580E-07 1.37084014E-06-5.74849377E-06
 3 21-1.26804102E-04-6.93531572E-06-6.64896237E-06 3.83900209E-05 1.66667138E-05
 3 22 1.76806705E-05 1.58825442E-05-2.44851067E-06 8.17955415E-07-2.98541760E-07
 3 23 7.85014197E-06-1.13667963E-05-7.65488033E-06 1.29720482E-04-1.36523059E-04
 3 24-1.17142288E-04 1.57922250E-05-1.72316111E-05 2.16369323E-05 6.21926241E-04
 3 25-2.30929275E-04 3.29047904E-05-2.37956992E-04-3.44350449E-05-7.73555827E-05
 3 26-3.85147048E-05 8.11460325E-06 4.72376617E-05 9.98434972E-07-1.18432468E-04
 3 27-8.52194655E-04 3.33329321E-06 1.16192221E-04-2.87620558E-07-1.96139387E-06
 3 28-7.95511762E-07 6.22970616E-07-8.74236325E-07 1.58749042E-05 2.49475642E-06
 3 29-1.98571437E-06 1.81570713E-06-3.93059039E-07-2.14173138E-06-2.47848344E-06
 3 30 4.62737876E-07 3.07274435E-07 8.32563212E-07 3.21506203E-06-1.06496949E-05
 3 31 4.86784081E-06-1.75681936E-05-1.19581417E-04-8.72235361E-05 5.57043665E-06
 3 32-9.55610334E-06 2.35974133E-05 4.63627630E-04-8.86284568E-05 2.07493446E-04
 3 33-1.30979197E-04-4.44821010E-05-3.54005999E-06-4.11100842E-05-2.54718446E-05
 3 34 8.43883510E-06-2.41247765E-05-6.91090295E-06 1.00727629E-04-1.04579985E-04
 3 35-6.84500573E-04 2.11487824E-06 1.06591321E-05-1.61235078E-07-3.34391780E-06
 3 36-2.92435763E-07-4.36005682E-05-1.71681187E-06 4.62545264E-06 6.64736584E-06
 3 37 2.30367064E-06 3.80744780E-06 5.95359807E-06-7.05513005E-09 2.13678689E-06
 3 38-1.25756284E-06 2.02085361E-06-5.09039264E-06 8.22335851E-06 2.29560205E-06
 4  1 2.93276510E-06 1.81575850E-05 4.04023369E-06-1.40548610E-06 1.73973992E-06
 4  2-9.69838897E-05-2.69843667E-05 2.11908987E-06-2.42612984E-06 1.34903016E-05
 4  3 1.38456731E-05 1.30104282E-05 2.54848513E-07-2.08853806E-06-1.06955294E-06
 4  4 2.29876316E-06-1.10977414E-05-8.78143303E-06 9.73852811E-05-2.96173106E-07
 4  5-4.32013270E-06-3.78923052E-07-7.76697289E-07-4.45542416E-07 2.36733014E-05
 4  6 3.17146197E-06 3.14405764E-06 2.01512208E-06-4.11427336E-06-2.16455735E-06
 4  7-2.16724792E-06-4.49892826E-07-3.01095692E-07 7.28122458E-07 5.05980086E-06
 4  8-2.67500166E-05-3.27285210E-06 2.76505293E-06-2.74578062E-07-2.74966793E-07
 4  9 7.35388374E-07-2.26968876E-07-1.76817811E-07 2.67485362E-06-1.67541670E-06
 4 10 1.04125811E-06 1.42792912E-07-2.79930485E-09-3.56069276E-07 4.05341639E-07
 4 11 6.11164327E-07 5.73332086E-08-2.29783749E-07 2.06096852E-06-4.81948569E-06
 4 12 6.20507224E-07-1.15270122E-06 2.01675893E-06 1.15419164E-05-9.80009728E-07
 4 13 2.73540924E-06-1.60185063E-06-4.74339698E-05-5.18506603E-06-6.37723279E-06
 4 14 2.11663925E-06 6.53906034E-06 3.39161404E-06 4.16209388E-06-1.35499485E-06
 4 15-2.35916568E-06-1.02464619E-06 2.00837982E-06-4.89896139E-06 8.26823403E-06
 4 16 2.19739653E-06 9.94524411E-01 2.10253418E-02 2.09098356E-04-7.40570961E-04
 4 17-8.98168566E-04 5.22524463E-03-2.70971859E-04 4.68793035E-04 5.56810163E-04
 4 18-4.50576923E-03-4.27317105E-03-4.27756743E-03 3.23007263E-05 5.52908001E-06
 4 19-7.78396256E-05 2.61332568E-04-1.28304092E-04 4.00250091E-04-2.02744215E-04
 4 20 6.41469612E-06 2.41762059E-05 1.31922929E-07 2.26816483E-06-1.69435059E-06
 4 21-1.29078144E-04-1.49831306E-05-2.08253345E-06 2.45249682E-05 1.64460878E-05
 4 22 9.69909266E-06 1.46240875E-05-1.51703059E-06-4.25898013E-06 3.49978382E-06
 4 23 1.13916956E-05-1.21476099E-05-1.20393263E-05 1.39165893E-04-1.51934885E-04
 4 24-9.33549054E-05-2.62481178E-05 3.80644887E-06 8.32799802E-06 4.94252571E-04
 4 25 2.06838429E-04-1.82507708E-04-3.26107198E-05-2.40978211E-05-1.50155785E-05
 4 26-5.83939017E-05-3.80053531E-05-3.54976360E-06 4.86626012E-06-8.87988025E-06
 4 27 1.07681600E-04-1.07275825E-04-7.28156913E-04-1.07491089E-04-1.13359077E-04
 4 28-2.15129729E-05 1.68510547E-05 1.25675253E-05 6.02108962E-04 1.77507852E-04
 4 29-8.25187287E-05-2.50096969E-04-5.49457857E-05-7.91726118E-05-1.26487599E-05
 4 30-4.51220821E-06-3.55231880E-05 9.41163310E-06 5.41769477E-06 1.20564784E-04
 4 31-1.17239779E-04-8.17483429E-04-1.35083120E-04 5.60872206E-05 7.01605321E-06
 4 32 9.83457342E-06 1.53567861E-05-2.47029215E-04-2.01626947E-05-4.22773591E-05
 4 33-5.43298012E-05 4.04345193E-05 5.97267476E-05 5.16776196E-05-1.06370353E-05
 4 34-2.46436431E-05-5.21856259E-06 6.46779436E-06 3.91378759E-05 1.02255601E-05
 4 35 6.06750109E-05-1.13587765E-04 6.81982590E-06 3.40545502E-07-3.54972543E-07
 4 36 6.07538323E-07-4.40814468E-05-5.97986517E-06 8.12384816E-07-3.27683856E-06
 4 37 6.57591839E-06 6.26323197E-06 6.59320861E-06-1.47082193E-06 1.30250202E-06
 4 38 5.55949394E-07-4.48453165E-06 2.82511472E-05 4.60024071E-06-2.78376549E-06
 5  1-1.06606485E-04 5.64714393E-05-1.03504371E-07 4.99923534E-06-1.85099262E-05
 5  2-2.44232298E-04 2.38675279E-06-2.64290381E-05 6.61899400E-05 6.04423126E-05
 5  3 6.26418664E-05 2.52358583E-05 4.09717472E-07-1.11248512E-05-1.28767951E-05
 5  4 8.78680549E-06 6.55099909E-05 9.45323233E-06 3.56547512E-05 2.85299147E-06
 5  5 1.21685265E-05-2.20518533E-06 1.53047157E-06 5.91805011E-07-4.93575185E-05
 5  6 9.07300454E-06 2.79610791E-06 4.20495809E-06 6.59738544E-06 6.75226981E-06
 5  7 3.23666060E-06 1.96993581E-06-7.02232817E-07 8.34678854E-07 2.33084784E-06
 5  8-7.63099863E-06 7.87199995E-06 1.69514789E-06-1.52477138E-04-9.03027149E-05
 5  9 1.63605231E-05 2.07451775E-05 5.09011221E-06 4.76601516E-04-1.78568386E-05
 5 10-2.67241547E-04-2.39144619E-05-5.23554744E-05 1.41612585E-05-5.42133291E-05
 5 11-5.70014551E-06 2.88848945E-06 3.38753942E-06-1.05112363E-04-7.06396067E-04
 5 12-7.99157750E-06 1.08030538E-04 3.97752010E-06 2.12643980E-05-2.12212839E-06
 5 13 2.62194008E-06-2.65244814E-07-1.15214243E-04 2.09378954E-05 4.74557198E-06
 5 14-6.93495778E-06 9.98440030E-06 1.25230975E-05 1.01834808E-05 6.94019878E-06
 5 15-1.66258558E-06-1.57222155E-06-1.31301041E-05 1.30122622E-04 1.29735869E-05
 5 16-1.14436355E-05 1.21138005E-04 2.52279230E-05-3.68777713E-06-2.93163871E-06
 5 17-3.69201929E-06-1.20147155E-04 2.54221272E-05 1.83228715E-05 2.17090546E-05
 5 18 1.45107735E-05 1.69782197E-05 1.42381639E-05 7.21714953E-07 2.21920271E-07
 5 19-1.70260099E-06-9.05216619E-06 1.27047817E-04 9.08954257E-06-1.15290374E-05
 5 20 3.80392344E-07-1.48875114E-06 8.43366972E-10-3.15101204E-07 1.35111481E-08
 5 21 6.55889284E-06-3.09247114E-07 4.80811778E-07-7.81861198E-08-4.84995604E-07
 5 22-9.25729944E-07-1.04230670E-06 7.89257941E-08 1.10664694E-07 1.52441896E-07
 5 23-9.08795933E-07-3.18354146E-08 5.01769544E-07-2.05405539E-06-2.32752389E-07
 5 24-2.20100853E-06-6.10544057E-07-1.16227869E-06 2.64898186E-07 1.69437041E-05
 5 25 1.06954190E-06 3.12099058E-06-1.14931054E-06-1.73763943E-06-2.54083828E-06
 5 26-9.64635747E-07-2.52766238E-07-8.09845188E-07-8.94622441E-07 4.52595802E-06
 5 27-1.75819965E-05 2.99806987E-06-1.10780874E-05 2.82509943E-07 5.76626437E-06
 5 28 1.36993928E-06-5.18997683E-07 5.32031461E-07-2.66992518E-05 5.13839317E-07
 5 29 4.19481343E-06 1.03955710E-06 2.67981471E-06 3.16653443E-06 4.44299685E-06
 5 30-6.70641042E-07 3.99391171E-07 3.11129545E-07 1.03250488E-06-4.37886392E-06
 5 31-5.03376608E-06 1.83249087E-05-1.36633850E-04-1.14150905E-04 1.04845128E-05
 5 32 2.85650065E-05-3.33052870E-06 6.07005749E-04-2.03791913E-04-2.14357304E-04
 5 33 1.30799772E-04-3.87740982E-05-5.37818157E-05-5.29546541E-05 3.60971869E-05
 5 34-3.29957628E-05-2.06662496E-05-1.16917628E-04-8.33199425E-04 5.30307779E-06
 5 35 1.10956407E-04 9.94523230E-01 2.10259171E-02-2.18566158E-04-7.96258798E-04
 5 36 8.34381480E-04 5.23619304E-03 2.04757925E-04 5.92219278E-04-4.46988146E-04
 5 37-4.28681497E-03-4.41707120E-03-4.35881391E-03-1.28991066E-04-7.92258560E-05
 5 38-4.35430765E-05 2.61540121E-04-1.36573660E-04 3.98451163E-04-2.03280446E-04
 6  1-3.09376008E-07-2.32639890E-06 1.54979899E-07 6.34219648E-07-5.42938258E-07
 6  2 1.60870770E-05 6.26421263E-07-1.42772318E-06 1.62134774E-06-1.81563384E-06
 6  3-2.89655126E-06-1.05382942E-06-3.47111274E-07 7.47810130E-08-4.30180659E-08
 6  4 3.06455696E-06-1.06362993E-05 2.64344645E-06-1.33930428E-05 5.63155299E-06
 6  5 2.03577560E-05 4.20730488E-06 3.01387891E-06 1.82192435E-06-1.08743082E-04
 6  6-2.37712389E-05-1.79875289E-05-4.66086845E-06 1.53538839E-05 1.52343942E-05
 6  7 1.26584111E-05 1.24594434E-06-4.54741408E-07-2.94868326E-06-1.43578661E-05
 6  8 1.14446564E-04 1.02892470E-05-9.67968762E-06-7.70168879E-04-7.18924380E-06
 6  9-4.00218580E-07 2.10374676E-06-7.24438647E-07-4.61326818E-05-5.83105040E-06
 6 10-9.62655026E-06 2.13698943E-06 9.89245830E-06 1.02015948E-05 1.00470623E-05
 6 11-4.77031460E-07 2.09599091E-06 1.27810969E-06 2.48962631E-06-1.16455531E-05
 6 12-6.35278985E-06 2.55312699E-05 1.22695513E-04 2.10237717E-05-2.76438929E-06
 6 13-2.77110901E-06 6.25227299E-06-8.27684293E-05 2.32066860E-05 2.31565235E-05
 6 14-2.02900100E-05 1.79197039E-05 2.28316262E-05 2.04446336E-05-4.05978394E-06
 6 15-3.01696937E-06-4.24830840E-06 7.28016084E-06 5.70408315E-05-4.13607937E-06
 6 16 3.22570185E-06 1.45897426E-04 2.66982101E-05-8.52357213E-06 5.12336919E-07
 6 17 2.26192156E-06-1.13734856E-04 3.81315885E-05 1.14204670E-05 2.49908803E-06
 6 18 3.07511987E-05 1.82698142E-05 3.02275026E-05 3.94224879E-06-2.67662594E-06
 6 19-2.22634676E-06-4.41944642E-06 9.98071534E-05-5.57718903E-06-4.22580451E-06
 6 20 1.05052156E-04-9.86975614E-05-2.31832357E-06-4.86886556E-06 2.45654255E-05
 6 21 5.76586865E-04 6.19628871E-05 3.53868366E-05-2.48001900E-04-6.63752350E-05
 6 22-6.31318089E-05-2.21697687E-05 2.37943630E-06-6.64278109E-06-4.65612247E-06
 6 23-1.64394857E-05 6.31157088E-05-7.31400013E-05-7.83067396E-04 9.94547761E-01
 6 24 2.10655227E-02-1.83272448E-04-9.13035841E-04-6.12385305E-04 5.03394339E-03
 6 25-2.34518638E-05 2.90478635E-04 4.25168118E-04-4.31772372E-03-4.28708528E-03
 6 26-4.20113352E-03 6.94601713E-05-1.08475537E-04-1.53712586E-05 3.25298379E-04
 6 27-3.13918113E-04 3.06434161E-04-2.89786273E-04-1.79007610E-05 1.36197260E-06
 6 28 7.41800493E-07-3.19809739E-06 6.16184393E-06-3.15781649E-05-3.12420047E-06
 6 29 2.65939771E-06-1.50180976E-05-3.48953358E-06 2.27468766E-06-5.25522134E-08
 6 30-6.21951269E-07-3.55596707E-08-5.73152353E-06-9.28858548E-06 6.31776085E-05
 6 31-6.33411280E-06 2.70840453E-05-5.06460117E-05 1.79617766E-05 1.34482006E-06
 6 32 7.88666449E-07-2.68951118E-06-9.58169824E-05-9.47857587E-06-1.96911219E-05
 6 33 4.04732141E-06 9.71021284E-06 1.71098740E-05 1.32357313E-05 6.17152020E-07
 6 34-2.67706974E-06 2.07000235E-06 6.12825912E-06-2.36884807E-05-7.92706296E-06
 6 35 7.80676839E-05-1.45906574E-06-3.95539210E-06-5.40622628E-07-2.31561060E-07
 6 36 5.49987366E-07 1.69614916E-05 2.69480731E-06 2.11564375E-06-2.44340939E-06
 6 37-2.68701600E-06-3.20709891E-06-3.14548097E-06-5.14616968E-08-6.04739862E-07
 6 38-9.23823675E-09-6.17596044E-07-1.43168619E-07-6.65363142E-07 9.27283948E-08
 7  1-1.61366334E-05 1.95529070E-05-2.60652193E-06-6.34895168E-07 1.52931658E-06
 7  2-1.00861412E-04 1.82366324E-05-8.26094423E-06 6.93505243E-06 1.43158153E-05
 7  3 1.46297828E-05 1.22928569E-05-1.53978275E-06 4.71527664E-07-5.21923895E-06
 7  4-8.50128526E-06 8.20328289E-05 6.51132720E-06-2.14738851E-05 8.88083939E-05
 7  5 1.98939001E-05 5.53937376E-06 1.50804267E-07-2.66021054E-06-8.21988923E-05
 7  6-3.24139933E-05 8.49236943E-07-3.31084113E-06 2.46671971E-05 2.35778104E-05
 7  7 1.56778655E-05-1.85795266E-06-4.89112608E-06-4.35979805E-08 4.16210442E-06
 7  8 5.09353413E-05-4.33514419E-06 4.39604564E-06 9.94550157E-01 2.10663911E-02
 7  9 3.41738282E-04-6.28415769E-04 8.67505018E-04 5.01081003E-03 6.40564625E-05
 7 10 2.79664520E-04-4.20373941E-04-4.15508886E-03-4.33575772E-03-4.29801646E-03
 7 11 3.93702962E-05-4.88113126E-05-7.63210601E-05 3.04196080E-04-2.92647273E-04
 7 12 3.24075942E-04-3.06561333E-04 1.36252606E-04-9.82481913E-05 1.87131137E-05
 7 13 2.35703517E-06-1.61869749E-05 5.72440169E-04-1.98621721E-04-4.85992599E-05
 7 14 1.48978956E-04-4.11461547E-05-6.57276226E-05-4.55370283E-05 4.34319546E-06
 7 15-2.27613971E-05-7.83902773E-06-7.32640467E-05-7.63952227E-04-2.09414382E-05
 7 16 6.50234591E-05-5.58967556E-07-4.04709206E-06 2.19786857E-07 3.62236984E-07
 7 17 4.46958941E-07 2.11095156E-05-2.54985128E-06-1.34998102E-06-3.14853759E-06
 7 18-2.93052824E-06-2.15099838E-06-2.93960264E-06-2.52169353E-07-6.88452907E-07
 7 19 5.23454754E-07 2.54361997E-06-2.04005201E-05-2.32728348E-06 2.28735056E-06
 7 20 4.34501175E-06 1.09549276E-05-1.18851778E-06 2.34425302E-07-1.47676303E-06
 7 21-5.23123912E-05 8.19816948E-06-1.85162027E-07 8.71503920E-06 6.61798823E-06
 7 22 9.30567217E-06 9.19433837E-06-1.92065162E-06 2.65886609E-07-1.89939735E-07
 7 23 2.44758021E-06-3.02077138E-06-4.51531354E-06 3.01671538E-05 7.76258571E-04
 7 24 3.18687922E-05-1.39614467E-06 1.54683414E-06-4.64714117E-06-8.10374774E-05
 7 25 1.53446927E-05-5.09863316E-06 1.64920905E-05 1.06658314E-05 7.83700292E-06
 7 26 5.62510739E-06 1.83822880E-06 7.70999314E-07-7.53216867E-08-1.27810384E-05
 7 27 9.45016846E-05 3.49489622E-06-1.37172929E-05-6.73633223E-07-3.33478636E-06
 7 28 1.68998740E-07 2.61462021E-07-3.29572378E-07 1.69669403E-05-2.28119473E-06
 7 29-1.13064530E-06 8.00992584E-07-2.45591937E-06-3.09365857E-06-2.51670040E-06
 7 30 1.26857399E-06-1.78389863E-07 2.20722088E-08 2.92908623E-06-1.04030822E-05
 7 31-4.48746400E-07 3.55568583E-07-5.40452641E-05 2.48910964E-06 4.32520913E-06
 7 32-1.68324096E-06-4.35020236E-06-4.14868133E-05-4.62617164E-06 1.62579725E-06
 7 33 1.29557874E-05 5.03503945E-06 1.11884352E-06-1.40261759E-06-4.58179098E-06
 7 34-2.20261246E-06 1.52118553E-06-6.79705122E-06 3.26970538E-05-1.09809352E-05
 7 35 6.69759601E-05 1.47215227E-04 2.71809182E-05 5.48398650E-06 5.62911200E-06
 7 36 2.54938264E-06-1.16398011E-04-2.62732820E-05-1.41821841E-05-2.51701125E-05
 7 37 3.10961763E-05 2.14994550E-05 2.75466082E-05 6.69079606E-06-1.30676459E-06
 7 38 2.55799448E-06-4.26988598E-06 1.00070030E-04-5.12015784E-06-2.82671354E-06
 8  1-7.69571895E-06 9.46246552E-06 6.58016735E-07-1.58803125E-06-1.12480839E-06
 8  2-4.42182105E-05-3.64136906E-06 6.90389055E-06 1.12219663E-05 8.76075218E-06
 8  3 7.87173044E-06 5.57642446E-06 9.21871187E-08-1.39678762E-06-1.30957379E-06
 8  4 2.62684478E-06-1.22314136E-05-5.08765350E-06 2.29330670E-05-1.29764504E-06
 8  5-3.97674301E-06 3.51677027E-07 3.41926636E-07 8.02882484E-07 1.70175232E-05
 8  6-1.01612069E-06-2.19805365E-06-4.04805704E-06-3.47549611E-06-3.29742282E-06
 8  7-2.60216382E-06-1.14402449E-07 4.34910445E-07-4.28653325E-08-5.73821932E-07
 8  8 2.63686431E-07-5.75967095E-07 1.69398777E-07 5.92948851E-05 2.01991133E-05
 8  9-1.58322680E-06-1.23736820E-06-2.24954307E-06-9.43814065E-05-7.85294433E-06
 8 10 1.32168907E-05 1.62147041E-05 1.47906455E-05 1.24319129E-05 1.14254402E-05
 8 11-3.93065611E-06 1.27058742E-06 2.94970836E-06-7.83634374E-06 7.58861494E-05
 8 12 6.04790368E-06-2.37368826E-05 1.14866913E-04 2.65338282E-05 6.33974250E-07
 8 13-2.28314304E-06 7.65255062E-06-1.17543820E-04 1.38996470E-05 5.55785646E-06
 8 14-3.61304494E-05 2.60090344E-05 2.13381774E-05 3.35195423E-05 5.69917989E-06
 8 15 2.47806961E-06 1.58243473E-07-4.39782997E-06 1.00597639E-04-5.90374188E-06
 8 16-1.30938979E-06 1.33424334E-04-9.67650472E-05 1.76520532E-05 1.23115853E-05
 8 17 1.17327188E-05 5.64063580E-04-1.75862243E-04-1.05872606E-04-1.42624736E-04
 8 18-3.82105393E-05-5.60125685E-05-5.52252989E-05 1.51539055E-05 1.64698531E-05
 8 19 1.33875252E-05-7.27094726E-05-7.54864354E-04-2.06827032E-05 6.41052875E-05
 8 20-7.50349060E-07-3.97967128E-06-2.30028565E-07-3.13450704E-07 5.41546722E-07
 8 21 2.07022281E-05 2.13782313E-06 5.77491433E-07-3.90910888E-06-2.83780852E-06
 8 22-2.10847327E-06-2.99879701E-06 4.03130586E-07 5.23077718E-07-3.38351236E-07
 8 23-2.19008707E-06 2.16122730E-06 2.34589545E-06-1.98356022E-05 5.58412749E-05
 8 24 4.17785554E-06 3.76501627E-06 4.73872931E-06 1.76945483E-06-3.73690111E-05
 8 25-1.19838148E-05-7.72049000E-06 1.30926861E-07-2.82802719E-06 5.33574163E-06
 8 26-6.05872185E-07 9.06717848E-07 5.81649450E-07 4.11836022E-06-6.11581819E-06
 8 27 2.97221229E-05-1.04987729E-05 6.56305762E-05-3.83726327E-06 1.52779065E-05
 8 28 4.63526200E-06-1.16603875E-06-2.06610794E-06-8.47681066E-05-1.61883508E-05
 8 29 6.80809047E-06 1.85670382E-05 1.00228015E-05 1.08556543E-05 1.40795221E-05
 8 30-5.51853261E-07 1.29641687E-06 6.78823946E-07 2.69809844E-06-1.31728743E-05
 8 31-1.25336528E-05 9.59227489E-05 9.94550221E-01 2.10671936E-02-9.99575972E-04
 8 32 4.22997553E-04 2.84386965E-04 5.01233539E-03 4.94633288E-04-7.48275067E-05
 8 33 5.13932952E-05-4.24023096E-03-4.33545956E-03-4.21311882E-03 8.47391762E-06
 8 34 7.76758504E-05 9.98961561E-05 3.20951476E-04-3.16146698E-04 3.05552096E-04
 8 35-2.88802842E-04 1.23613098E-04 2.14275129E-05 2.98425742E-06 2.98354673E-06
 8 36 5.46873606E-06-8.52236397E-05-1.09238814E-06-1.53531098E-05-3.52764439E-05
 8 37 1.70146316E-05 2.54069935E-05 1.87869781E-05-1.00789100E-06 5.06501619E-06
 8 38 1.79949315E-06 5.76221283E-06 6.16881544E-05-3.64393646E-06 4.69722167E-06
 9  1 9.94543913E-01 2.10699466E-02 4.29463878E-04 1.00785477E-03 1.29536004E-04
 9  2 5.04260118E-03-1.59552985E-04-3.71352094E-04-2.57444460E-04-4.35845196E-03
 9  3-4.30398844E-03-4.14049137E-03 5.61717606E-05 1.10046621E-05-8.28514168E-06
 9  4 3.09282633E-04-2.88401095E-04 3.11001708E-04-3.50433963E-04 7.41089082E-05
 9  5 2.25894002E-05 3.97339473E-06-2.72053020E-08-5.04066792E-06-1.05444668E-04
 9  6-2.49736094E-05-1.35392420E-05 1.67083425E-05 2.79444096E-05 1.57440845E-05
 9  7 2.99310928E-05 2.28779548E-06-1.98679743E-06-3.87451706E-07-7.86378421E-06
 9  8 9.62784160E-05-4.81602012E-06 8.11532656E-07 2.13685845E-05 2.88138996E-06
 9  9-3.74142177E-06 1.36774233E-06-4.67814484E-06-3.42783521E-05 1.05352281E-05
 9 10 1.93069834E-06 8.48522144E-06-1.50217353E-06 9.69552958E-07 1.58592330E-06
 9 11-2.77045641E-06 2.42657943E-06-4.74324916E-06-9.33958753E-06 6.24744395E-05
 9 12-6.03388857E-06 2.83532093E-05-6.22417736E-07-3.56413119E-06 5.22234750E-07
 9 13 1.92845488E-08-9.67222764E-08 1.86329945E-05-3.31055062E-06-1.34551303E-06
 9 14 1.28512122E-06-2.16497918E-06-2.47099837E-06-2.35602208E-06-8.81493902E-07
 9 15 4.13016126E-07 9.23682212E-08 2.32656985E-06-1.83535432E-05-2.12941414E-06
 9 16 2.06190565E-06 4.51515898E-06 1.21838496E-05-1.85534038E-06-1.17354965E-06
 9 17 9.17266469E-07-5.77262885E-05 1.07451021E-05 7.43068733E-06-4.84943026E-06
 9 18 9.71768311E-06 1.13993716E-05 7.19795828E-06-3.18606658E-08 1.12624107E-06
 9 19-5.31328008E-07-3.92785884E-06 3.41321187E-05 3.10133696E-06-4.27977190E-06
 9 20 6.81468707E-06 1.72695069E-05-1.39741961E-06-2.60134961E-06 2.24763696E-06
 9 21-6.93483506E-05 1.01972830E-05 1.97844261E-05-9.59869361E-06 9.25384472E-06
 9 22 1.19187118E-05 1.53827848E-05 9.79793931E-07-2.20726555E-07-1.23889710E-08
 9 23 3.64651005E-06-5.45694828E-07 5.34641408E-06-2.04387946E-05-1.27168439E-06
 9 24-3.63164657E-06-2.37305857E-07-3.38689100E-07-4.04397799E-07 1.83847934E-05
 9 25 1.71936741E-07 6.32566646E-07 3.29058331E-06-2.82763644E-06-4.11704562E-06
 9 26-1.79713018E-06 4.72622326E-07-4.85348864E-07 6.68271057E-07-5.29241420E-07
 9 27 1.22805483E-06 3.62413144E-06-1.19758695E-05-2.48088308E-03-3.04195218E-05
 9 28 2.79235135E-06 2.65650756E-06-2.54269523E-06-1.19141032E-04-1.60765329E-05
 9 29-3.15054257E-05 2.36888167E-05 2.31182259E-05 3.47723244E-05 3.48711773E-05
 9 30-7.72982066E-06 1.61693502E-07-1.57931318E-06-1.16392615E-05 9.29542744E-05
 9 31 2.16970857E-06 5.08551587E-05 1.44025070E-05 1.71722853E-05-2.55068263E-06
 9 32-4.10202688E-06 4.53844975E-08-9.10375126E-05 1.27269633E-05 1.72872810E-05
 9 33-1.03149796E-05 1.12611331E-05 1.22145200E-05 1.49381612E-05-4.08981474E-07