!
! Test malonaldehyde C2v point group symmetry
! when using 2 basis function centers for one QM hydrogen nucleus.
! Also tests symmetry code when moread is used for nuclear guess.
!
! FINAL ENERGY IS     -265.5106745169 AFTER  12 ITERATIONS
!
 $CONTRL  SCFTYP=RHF RUNTYP=ENERGY $END
 $SYSTEM  TIMLIM=2000 MEMORY=5000000   $END
 $SCF     SOSCF=.F. DIIS=.T. ETHRSH=6.0 $END
 $NEO     NEOSCF=RONHF BASNUC=DZSPDN NUNIQN=1 NTAUXB=1 
          IUNIQN(1)=9 IAUXNB(1)=10 NUCST=1 NUMULT=2  
          SYMNUC=.T. $END
 $BASIS   GBASIS=N31 NGAUSS=6 NPFUNC=1 NDFUNC=1 $END
 $GUESS   GUESS=MOREAD NORB=100 $END
 $GESNMO  GUESS=MOREAD NORB=40  $END
 $DATA
--- malonaldehyde, 1 QM hydrogen nucleus, 2 basis function centers
Cnv 2

 O           8.0    .0000000000  -1.3523179814   1.1812273387
 C           6.0    .0000000000  -1.2102049829   -.0611239497
 C           6.0    .0000000000    .0000000000   -.7498124714
 H           1.0    .0000000000    .0000000000  -1.8217007480
 H           1.0    .0000000000  -2.1272267240   -.6397094062
 H           1.0    .0000000000   -.5666822045   1.6888255291
 $END
--- OPTIMIZED RHF      MO-S --- GENERATED AT Wed Aug 27 16:58:58 2003
E=     -265.5106745186, E(NUC)=  153.9803439400
 $VEC   
 1  1-7.03277839E-01-1.48790686E-02 0.00000000E+00 4.77470979E-04 8.20080071E-04
 1  2-3.87533792E-03 0.00000000E+00 1.15735141E-04-5.59166275E-04 3.01201452E-03
 1  3 2.84833318E-03 2.86517098E-03 0.00000000E+00 0.00000000E+00 6.85583984E-05
 1  4 7.03277839E-01 1.48790686E-02 0.00000000E+00 4.77470979E-04-8.20080071E-04
 1  5 3.87533792E-03 0.00000000E+00 1.15735141E-04 5.59166275E-04-3.01201452E-03
 1  6-2.84833318E-03-2.86517098E-03 0.00000000E+00 0.00000000E+00 6.85583984E-05
 1  7-7.91898584E-06-3.60076133E-04 0.00000000E+00-3.42153267E-05-1.26519264E-04
 1  8-1.65933714E-04 0.00000000E+00 1.18363848E-04 1.36352278E-04 4.39620725E-05
 1  9 7.60065819E-06 3.19307403E-04 0.00000000E+00 0.00000000E+00 2.74815918E-05
 1 10 7.91898584E-06 3.60076133E-04 0.00000000E+00-3.42153267E-05 1.26519264E-04
 1 11 1.65933714E-04 0.00000000E+00 1.18363848E-04-1.36352278E-04-4.39620725E-05
 1 12-7.60065819E-06-3.19307403E-04 0.00000000E+00 0.00000000E+00 2.74815918E-05
 1 13 0.00000000E+00 0.00000000E+00 0.00000000E+00 9.09848510E-06 0.00000000E+00
 1 14 0.00000000E+00 0.00000000E+00 1.43363404E-04 0.00000000E+00 0.00000000E+00
 1 15 0.00000000E+00 0.00000000E+00 0.00000000E+00 0.00000000E+00 7.87621972E-05
 1 16 0.00000000E+00 0.00000000E+00 0.00000000E+00 2.24420754E-05 0.00000000E+00
 1 17 3.21088652E-05 4.01045131E-05 0.00000000E+00-6.00133324E-06 5.17796222E-05
 1 18-3.21088652E-05-4.01045131E-05 0.00000000E+00-6.00133324E-06-5.17796222E-05
 1 19-5.42824823E-05 1.46088546E-03 0.00000000E+00 1.97209486E-04-9.69915823E-05
 1 20 5.42824823E-05-1.46088546E-03 0.00000000E+00 1.97209486E-04 9.69915823E-05
 2  1 7.03300657E-01 1.49569029E-02 0.00000000E+00-4.49164626E-04-8.21160365E-04
 2  2 3.23126183E-03 0.00000000E+00 9.80974470E-05 2.58213478E-04-2.94142077E-03
 2  3-2.82880339E-03-2.79723946E-03 0.00000000E+00 0.00000000E+00-1.09292842E-05
 2  4 7.03300657E-01 1.49569029E-02 0.00000000E+00 4.49164626E-04-8.21160365E-04
 2  5 3.23126183E-03 0.00000000E+00-9.80974470E-05 2.58213478E-04-2.94142077E-03
 2  6-2.82880339E-03-2.79723946E-03 0.00000000E+00 0.00000000E+00 1.09292842E-05
 2  7 7.63145776E-07 3.39273174E-04 0.00000000E+00 5.27204128E-05 9.97343176E-05
 2  8 2.64315700E-04 0.00000000E+00-3.83820070E-04-1.38731554E-04-5.24131056E-05
 2  9-1.93386119E-05-3.71919601E-04 0.00000000E+00 0.00000000E+00-5.12851189E-05
 2 10 7.63145776E-07 3.39273174E-04 0.00000000E+00-5.27204128E-05 9.97343176E-05
 2 11 2.64315700E-04 0.00000000E+00 3.83820070E-04-1.38731554E-04-5.24131056E-05
 2 12-1.93386119E-05-3.71919601E-04 0.00000000E+00 0.00000000E+00 5.12851189E-05
 2 13 9.25483588E-06 6.82093168E-05 0.00000000E+00 0.00000000E+00-3.02995513E-05
 2 14-7.75096014E-04 0.00000000E+00 0.00000000E+00-3.62421618E-04-8.72604572E-06
 2 15 8.78010975E-05-1.16872783E-04 0.00000000E+00 0.00000000E+00 0.00000000E+00
 2 16 3.49277173E-05-1.08983547E-04 0.00000000E+00 0.00000000E+00 2.72459863E-05
 2 17-1.79689675E-05 5.11642376E-05 0.00000000E+00 9.38715730E-06-4.79269422E-05
 2 18-1.79689675E-05 5.11642376E-05 0.00000000E+00-9.38715730E-06-4.79269422E-05
 2 19 1.12609851E-04-3.53062674E-04 0.00000000E+00-5.61744123E-05 6.73275308E-05
 2 20 1.12609851E-04-3.53062674E-04 0.00000000E+00 5.61744123E-05 6.73275308E-05
 3  1-1.47664582E-04 5.21040550E-04 0.00000000E+00 5.14765165E-05-1.51157277E-04
 3  2-2.65181941E-03 0.00000000E+00 3.91151395E-04 1.54397545E-03 3.65222551E-04
 3  3 2.14745562E-05-2.88857069E-04 0.00000000E+00 0.00000000E+00 6.73201173E-05
 3  4-1.47664582E-04 5.21040550E-04 0.00000000E+00-5.14765165E-05-1.51157277E-04
 3  5-2.65181941E-03 0.00000000E+00-3.91151395E-04 1.54397545E-03 3.65222551E-04
 3  6 2.14745562E-05-2.88857069E-04 0.00000000E+00 0.00000000E+00-6.73201173E-05
 3  7 7.04092338E-01 1.86469201E-02 0.00000000E+00 1.09126323E-04 7.03720328E-04
 3  8-3.93713278E-03 0.00000000E+00-7.62340360E-04 2.47576064E-03-1.85204530E-03
 3  9-8.42732594E-04-4.84814290E-04 0.00000000E+00 0.00000000E+00 2.06517048E-04
 3 10 7.04092338E-01 1.86469201E-02 0.00000000E+00-1.09126323E-04 7.03720328E-04
 3 11-3.93713278E-03 0.00000000E+00 7.62340360E-04 2.47576064E-03-1.85204530E-03
 3 12-8.42732594E-04-4.84814290E-04 0.00000000E+00 0.00000000E+00-2.06517048E-04
 3 13 5.99786356E-03 2.59937331E-04 0.00000000E+00 0.00000000E+00-1.94352965E-05
 3 14 2.89090665E-03 0.00000000E+00 0.00000000E+00-1.83647955E-03-6.89855963E-05
 3 15-6.91218890E-04-5.46942119E-04 0.00000000E+00 0.00000000E+00 0.00000000E+00
 3 16-2.32916568E-04-9.70987667E-04 0.00000000E+00 0.00000000E+00 1.60963308E-04
 3 17-1.01367853E-04 1.98420899E-03 0.00000000E+00 6.41888051E-05-1.83164413E-04
 3 18-1.01367853E-04 1.98420899E-03 0.00000000E+00-6.41888051E-05-1.83164413E-04
 3 19 2.92626290E-04-1.91272708E-05 0.00000000E+00 5.82581482E-05-2.41674298E-04
 3 20 2.92626290E-04-1.91272708E-05 0.00000000E+00-5.82581482E-05-2.41674298E-04
 4  1-1.62517092E-04 4.42617776E-04 0.00000000E+00 4.00040476E-05-2.05809393E-04
 4  2-1.87906321E-03 0.00000000E+00-7.73812800E-05 1.73144648E-03 3.77772594E-04
 4  3 2.40138982E-05-3.36866433E-04 0.00000000E+00 0.00000000E+00 5.79334350E-05
 4  4 1.62517092E-04-4.42617776E-04 0.00000000E+00 4.00040476E-05 2.05809393E-04
 4  5 1.87906321E-03 0.00000000E+00-7.73812800E-05-1.73144648E-03-3.77772594E-04
 4  6-2.40138982E-05 3.36866433E-04 0.00000000E+00 0.00000000E+00 5.79334350E-05
 4  7 7.04151220E-01 1.90552289E-02 0.00000000E+00 1.43014275E-04 8.28085046E-04
 4  8-7.06872073E-03 0.00000000E+00 1.43786362E-03 2.80544383E-03-1.73212073E-03
 4  9-1.07532845E-03-5.14804650E-04 0.00000000E+00 0.00000000E+00 1.31626241E-04
 4 10-7.04151220E-01-1.90552289E-02 0.00000000E+00 1.43014275E-04-8.28085046E-04
 4 11 7.06872073E-03 0.00000000E+00 1.43786362E-03-2.80544383E-03 1.73212073E-03
 4 12 1.07532845E-03 5.14804650E-04 0.00000000E+00 0.00000000E+00 1.31626241E-04
 4 13 0.00000000E+00 0.00000000E+00 0.00000000E+00-3.32808001E-04 0.00000000E+00
 4 14 0.00000000E+00 0.00000000E+00 4.25210623E-03 0.00000000E+00 0.00000000E+00
 4 15 0.00000000E+00 0.00000000E+00 0.00000000E+00 0.00000000E+00-6.99021670E-05
 4 16 0.00000000E+00 0.00000000E+00 0.00000000E+00-3.60564027E-05 0.00000000E+00
 4 17-9.83636785E-05 1.31366835E-03 0.00000000E+00 5.25726056E-05-1.99039269E-04
 4 18 9.83636785E-05-1.31366835E-03 0.00000000E+00 5.25726056E-05 1.99039269E-04
 4 19 1.95289860E-04-8.78907115E-04 0.00000000E+00 5.42177117E-05-1.75719170E-04
 4 20-1.95289860E-04 8.78907115E-04 0.00000000E+00 5.42177117E-05 1.75719170E-04
 5  1-5.68799726E-05-1.73673405E-04 0.00000000E+00 1.12607057E-05 3.72068746E-05
 5  2 1.49065964E-03 0.00000000E+00-2.86011756E-04-3.08623168E-04-6.65472705E-05
 5  3-1.97824992E-04-2.48561070E-04 0.00000000E+00 0.00000000E+00-1.73940128E-05
 5  4-5.68799726E-05-1.73673405E-04 0.00000000E+00-1.12607057E-05 3.72068746E-05
 5  5 1.49065964E-03 0.00000000E+00 2.86011756E-04-3.08623168E-04-6.65472705E-05
 5  6-1.97824992E-04-2.48561070E-04 0.00000000E+00 0.00000000E+00 1.73940128E-05
 5  7 4.72133088E-03 2.05620078E-04 0.00000000E+00-1.31829335E-04-1.02026612E-04
 5  8-5.34290425E-03 0.00000000E+00 2.31570368E-03-1.56196350E-04 9.48180734E-05
 5  9 4.66918256E-04 4.18679805E-04 0.00000000E+00 0.00000000E+00 1.20559621E-04
 5 10 4.72133088E-03 2.05620078E-04 0.00000000E+00 1.31829335E-04-1.02026612E-04
 5 11-5.34290425E-03 0.00000000E+00-2.31570368E-03-1.56196350E-04 9.48180734E-05
 5 12 4.66918256E-04 4.18679805E-04 0.00000000E+00 0.00000000E+00-1.20559621E-04
 5 13-9.95526299E-01-2.84502935E-02 0.00000000E+00 0.00000000E+00-3.53160046E-04
 5 14 1.41493770E-02 0.00000000E+00 0.00000000E+00 3.01482143E-03 2.41480082E-03
 5 15 1.66063571E-03 1.85626532E-03 0.00000000E+00 0.00000000E+00 0.00000000E+00
 5 16 3.36476600E-04-1.07901554E-03 0.00000000E+00 0.00000000E+00 2.11041143E-04
 5 17-2.69299782E-05-3.18883997E-04 0.00000000E+00 1.02523527E-04-3.42934667E-05
 5 18-2.69299782E-05-3.18883997E-04 0.00000000E+00-1.02523527E-04-3.42934667E-05
 5 19-1.02228333E-05-4.97858813E-06 0.00000000E+00 1.81134343E-05-1.14711811E-05
 5 20-1.02228333E-05-4.97858813E-06 0.00000000E+00-1.81134343E-05-1.14711811E-05
 6  1 1.37969070E-01-3.00294227E-01 0.00000000E+00 2.98340281E-02 7.63189938E-02
 6  2-2.96902488E-01 0.00000000E+00 2.14840646E-02 3.72969528E-02 3.21378744E-03
 6  3-6.62687784E-04-1.09908492E-02 0.00000000E+00 0.00000000E+00-2.83241136E-03
 6  4 1.37969070E-01-3.00294227E-01 0.00000000E+00-2.98340281E-02 7.63189938E-02
 6  5-2.96902488E-01 0.00000000E+00-2.14840646E-02 3.72969528E-02 3.21378744E-03
 6  6-6.62687784E-04-1.09908492E-02 0.00000000E+00 0.00000000E+00 2.83241136E-03
 6  7 7.49223367E-02-1.42996085E-01 0.00000000E+00 1.54806315E-03-1.05052460E-01
 6  8-1.49946830E-02 0.00000000E+00-1.60872066E-02 2.16728811E-02 1.15221989E-02
 6  9 9.97201849E-03-1.96501281E-02 0.00000000E+00 0.00000000E+00-4.00331556E-03
 6 10 7.49223367E-02-1.42996085E-01 0.00000000E+00-1.54806315E-03-1.05052460E-01
 6 11-1.49946830E-02 0.00000000E+00 1.60872066E-02 2.16728811E-02 1.15221989E-02
 6 12 9.97201849E-03-1.96501281E-02 0.00000000E+00 0.00000000E+00 4.00331556E-03
 6 13 2.65436006E-02-4.61598872E-02 0.00000000E+00 0.00000000E+00-2.88077483E-02
 6 14-4.97850043E-02 0.00000000E+00 0.00000000E+00-3.81938197E-02 2.76563115E-03
 6 15-4.55789111E-03-3.62434805E-03 0.00000000E+00 0.00000000E+00 0.00000000E+00
 6 16-6.95112016E-03-1.05983116E-02 0.00000000E+00 0.00000000E+00-3.92775696E-05
 6 17-2.09121467E-02 6.86921719E-03 0.00000000E+00 3.02175236E-03-2.90107267E-03
 6 18-2.09121467E-02 6.86921719E-03 0.00000000E+00-3.02175236E-03-2.90107267E-03
 6 19-2.49169090E-02-5.38499856E-03 0.00000000E+00 2.96199480E-05 4.37770983E-03
 6 20-2.49169090E-02-5.38499856E-03 0.00000000E+00-2.96199480E-05 4.37770983E-03
 7  1 1.43079875E-01-3.13772475E-01 0.00000000E+00 2.13478715E-02 8.04697943E-02
 7  2-3.05630327E-01 0.00000000E+00 1.41956353E-02 3.37491958E-02 2.41435040E-03
 7  3 5.08267264E-04-1.18770241E-02 0.00000000E+00 0.00000000E+00-2.03838575E-03
 7  4-1.43079875E-01 3.13772475E-01 0.00000000E+00 2.13478715E-02-8.04697943E-02
 7  5 3.05630327E-01 0.00000000E+00 1.41956353E-02-3.37491958E-02-2.41435040E-03
 7  6-5.08267264E-04 1.18770241E-02 0.00000000E+00 0.00000000E+00-2.03838575E-03
 7  7 7.19453398E-02-1.36652859E-01 0.00000000E+00-1.34488752E-02-1.14020460E-01
 7  8-4.84412857E-02 0.00000000E+00 3.18269894E-04 2.07674555E-02 1.16207003E-02
 7  9 1.23032479E-02-2.14579266E-02 0.00000000E+00 0.00000000E+00-4.24795569E-03
 7 10-7.19453398E-02 1.36652859E-01 0.00000000E+00-1.34488752E-02 1.14020460E-01
 7 11 4.84412857E-02 0.00000000E+00 3.18269894E-04-2.07674555E-02-1.16207003E-02
 7 12-1.23032479E-02 2.14579266E-02 0.00000000E+00 0.00000000E+00-4.24795569E-03
 7 13 0.00000000E+00 0.00000000E+00 0.00000000E+00-2.98625353E-02 0.00000000E+00
 7 14 0.00000000E+00 0.00000000E+00 1.55259636E-02 0.00000000E+00 0.00000000E+00
 7 15 0.00000000E+00 0.00000000E+00 0.00000000E+00 0.00000000E+00-6.95946295E-03
 7 16 0.00000000E+00 0.00000000E+00 0.00000000E+00-3.64806944E-04 0.00000000E+00
 7 17-2.18680358E-02 3.27796673E-03 0.00000000E+00 2.97135511E-03-3.22589659E-03
 7 18 2.18680358E-02-3.27796673E-03 0.00000000E+00 2.97135511E-03 3.22589659E-03
 7 19-2.18238502E-02 4.94015720E-03 0.00000000E+00-6.62190975E-04 4.55004856E-03
 7 20 2.18238502E-02-4.94015720E-03 0.00000000E+00-6.62190975E-04-4.55004856E-03
 8  1-5.23794094E-02 1.18490619E-01 0.00000000E+00 1.22087986E-02 3.53765535E-02
 8  2 1.36514415E-01 0.00000000E+00 2.57461320E-03 1.84211379E-02 9.16248879E-04
 8  3 2.15212789E-03-1.71144748E-03 0.00000000E+00 0.00000000E+00-4.14835823E-03
 8  4-5.23794094E-02 1.18490619E-01 0.00000000E+00-1.22087986E-02 3.53765535E-02
 8  5 1.36514415E-01 0.00000000E+00-2.57461320E-03 1.84211379E-02 9.16248879E-04
 8  6 2.15212789E-03-1.71144748E-03 0.00000000E+00 0.00000000E+00 4.14835823E-03
 8  7 8.40248608E-02-1.73723414E-01 0.00000000E+00 1.08154461E-01 1.15236379E-01
 8  8-1.10258415E-01 0.00000000E+00 1.48765325E-02 2.29844597E-02 6.57858608E-03
 8  9-1.53519174E-02 8.59205531E-03 0.00000000E+00 0.00000000E+00-6.81799551E-03
 8 10 8.40248608E-02-1.73723414E-01 0.00000000E+00-1.08154461E-01 1.15236379E-01
 8 11-1.10258415E-01 0.00000000E+00-1.48765325E-02 2.29844597E-02 6.57858608E-03
 8 12-1.53519174E-02 8.59205531E-03 0.00000000E+00 0.00000000E+00 6.81799551E-03
 8 13 1.68251120E-01-3.11576675E-01 0.00000000E+00 0.00000000E+00-5.55212933E-02
 8 14-2.40727156E-01 0.00000000E+00 0.00000000E+00-1.24900055E-02 1.23591333E-02
 8 15-1.35544605E-02-2.02426297E-03 0.00000000E+00 0.00000000E+00 0.00000000E+00
 8 16-9.31793995E-02-2.54349199E-02 0.00000000E+00 0.00000000E+00-9.68984459E-03
 8 17-4.84810115E-02-1.05017973E-02 0.00000000E+00 4.54555171E-03-1.38746226E-03
 8 18-4.84810115E-02-1.05017973E-02 0.00000000E+00-4.54555171E-03-1.38746226E-03
 8 19 1.25430277E-02 6.78085183E-03 0.00000000E+00-5.72636168E-04-1.16330054E-03
 8 20 1.25430277E-02 6.78085183E-03 0.00000000E+00 5.72636168E-04-1.16330054E-03
 9  1 5.60304614E-02-1.30409662E-01 0.00000000E+00 1.89975232E-02-1.15820871E-01
 9  2-1.59080075E-01 0.00000000E+00 1.25525048E-02-7.02114800E-02-2.33711331E-03
 9  3-6.14931824E-03 7.59245960E-03 0.00000000E+00 0.00000000E+00 4.04757672E-03
 9  4-5.60304614E-02 1.30409662E-01 0.00000000E+00 1.89975232E-02 1.15820871E-01
 9  5 1.59080075E-01 0.00000000E+00 1.25525048E-02 7.02114800E-02 2.33711331E-03
 9  6 6.14931824E-03-7.59245960E-03 0.00000000E+00 0.00000000E+00 4.04757672E-03
 9  7-1.21554155E-01 2.55752317E-01 0.00000000E+00 7.72714640E-03-1.15849561E-01
 9  8 2.14568856E-01 0.00000000E+00-9.48956298E-04-6.64596450E-02-1.02664941E-02
 9  9 8.93076775E-03-3.30214867E-03 0.00000000E+00 0.00000000E+00 1.18145601E-03
 9 10 1.21554155E-01-2.55752317E-01 0.00000000E+00 7.72714640E-03 1.15849561E-01
 9 11-2.14568856E-01 0.00000000E+00-9.48956298E-04 6.64596450E-02 1.02664941E-02
 9 12-8.93076775E-03 3.30214867E-03 0.00000000E+00 0.00000000E+00 1.18145601E-03
 9 13 0.00000000E+00 0.00000000E+00 0.00000000E+00 2.24431294E-01 0.00000000E+00
 9 14 0.00000000E+00 0.00000000E+00 1.19670852E-02 0.00000000E+00 0.00000000E+00
 9 15 0.00000000E+00 0.00000000E+00 0.00000000E+00 0.00000000E+00 1.54992921E-02
 9 16 0.00000000E+00 0.00000000E+00 0.00000000E+00 3.11498192E-03 0.00000000E+00
 9 17 1.30619929E-01 4.74294141E-02 0.00000000E+00-9.57755221E-03 4.96869233E-03
 9 18-1.30619929E-01-4.74294141E-02 0.00000000E+00-9.57755221E-03-4.96869233E-03
 9 19-2.05618092E-02 3.68699001E-03 0.00000000E+00-4.24277882E-05 7.92541506E-04
 9 20 2.05618092E-02-3.68699001E-03 0.00000000E+00-4.24277882E-05-7.92541506E-04
10  1-2.76555783E-02 6.08381620E-02 0.00000000E+00-1.58480020E-01 1.96820870E-01
10  2 9.77688720E-02 0.00000000E+00-9.77421467E-02 1.02212504E-01-1.26502226E-03
10  3 1.38205730E-02-1.42352786E-02 0.00000000E+00 0.00000000E+00 1.57375088E-03
10  4-2.76555783E-02 6.08381620E-02 0.00000000E+00 1.58480020E-01 1.96820870E-01
10  5 9.77688720E-02 0.00000000E+00 9.77421467E-02 1.02212504E-01-1.26502226E-03
10  6 1.38205730E-02-1.42352786E-02 0.00000000E+00 0.00000000E+00-1.57375088E-03
10  7 6.45486912E-02-1.39098615E-01 0.00000000E+00-2.11606511E-01-3.62728971E-02
10  8-1.17120744E-01 0.00000000E+00-5.24989974E-02 2.54389101E-02 7.26774539E-03
10  9 2.50130660E-03-6.55347795E-03 0.00000000E+00 0.00000000E+00 1.64015332E-03
10 10 6.45486912E-02-1.39098615E-01 0.00000000E+00 2.11606511E-01-3.62728971E-02
10 11-1.17120744E-01 0.00000000E+00 5.24989974E-02 2.54389101E-02 7.26774539E-03
10 12 2.50130660E-03-6.55347795E-03 0.00000000E+00 0.00000000E+00-1.64015332E-03
10 13-6.65689798E-02 1.24064618E-01 0.00000000E+00 0.00000000E+00 1.72897925E-02
10 14 1.55846364E-01 0.00000000E+00 0.00000000E+00-8.19020559E-03-4.58677380E-03
10 15-1.36464984E-03 4.60139011E-03 0.00000000E+00 0.00000000E+00 0.00000000E+00
10 16 4.86624788E-02 1.65424650E-02 0.00000000E+00 0.00000000E+00 4.53035294E-03
10 17-1.35075028E-01-6.57011192E-02 0.00000000E+00 7.50365222E-03-6.12804646E-03
10 18-1.35075028E-01-6.57011192E-02 0.00000000E+00-7.50365222E-03-6.12804646E-03
10 19 4.63007639E-02 3.61038514E-02 0.00000000E+00-5.01832089E-03-8.61206959E-04
10 20 4.63007639E-02 3.61038514E-02 0.00000000E+00 5.01832089E-03-8.61206959E-04
11  1 4.05942291E-02-9.80225834E-02 0.00000000E+00-1.32029669E-01-2.12514952E-01
11  2-1.43661990E-01 0.00000000E+00-8.36488475E-02-1.21057069E-01-6.23179318E-03
11  3-2.83876943E-03 7.94469178E-03 0.00000000E+00 0.00000000E+00 1.52379869E-02
11  4 4.05942291E-02-9.80225834E-02 0.00000000E+00 1.32029669E-01-2.12514952E-01
11  5-1.43661990E-01 0.00000000E+00 8.36488475E-02-1.21057069E-01-6.23179318E-03
11  6-2.83876943E-03 7.94469178E-03 0.00000000E+00 0.00000000E+00-1.52379869E-02
11  7-2.77788685E-02 6.45923966E-02 0.00000000E+00-1.38763032E-01 1.60155292E-01
11  8 1.09116146E-02 0.00000000E+00-4.88017670E-02 3.30712772E-02-4.30630083E-03
11  9-4.11580967E-03 4.98133432E-03 0.00000000E+00 0.00000000E+00-4.19778862E-04
11 10-2.77788685E-02 6.45923966E-02 0.00000000E+00 1.38763032E-01 1.60155292E-01
11 11 1.09116146E-02 0.00000000E+00 4.88017670E-02 3.30712772E-02-4.30630083E-03
11 12-4.11580967E-03 4.98133432E-03 0.00000000E+00 0.00000000E+00 4.19778862E-04
11 13 3.53743564E-02-6.63958955E-02 0.00000000E+00 0.00000000E+00 2.45264124E-01
11 14-8.13934017E-02 0.00000000E+00 0.00000000E+00 1.13429537E-01 1.80139458E-03
11 15 2.32082266E-03-4.85995692E-03 0.00000000E+00 0.00000000E+00 0.00000000E+00
11 16-1.70380395E-01-9.81912147E-02 0.00000000E+00 0.00000000E+00-1.03521736E-02
11 17-8.01917511E-02-5.30696954E-02 0.00000000E+00 3.88318198E-03-1.38237710E-03
11 18-8.01917511E-02-5.30696954E-02 0.00000000E+00-3.88318198E-03-1.38237710E-03
11 19-8.84595569E-03-2.28332211E-02 0.00000000E+00 8.34836931E-05-3.19761498E-03
11 20-8.84595569E-03-2.28332211E-02 0.00000000E+00-8.34836931E-05-3.19761498E-03
12  1 3.20425110E-02-6.85725839E-02 0.00000000E+00 1.18554365E-01-2.98402673E-01
12  2-1.45701296E-01 0.00000000E+00 8.31950312E-02-1.67647457E-01-5.16656278E-04
12  3-1.14239365E-02 1.73838032E-02 0.00000000E+00 0.00000000E+00 1.82965141E-03
12  4-3.20425110E-02 6.85725839E-02 0.00000000E+00 1.18554365E-01 2.98402673E-01
12  5 1.45701296E-01 0.00000000E+00 8.31950312E-02 1.67647457E-01 5.16656278E-04
12  6 1.14239365E-02-1.73838032E-02 0.00000000E+00 0.00000000E+00 1.82965141E-03
12  7 1.66250010E-03-2.22058349E-03 0.00000000E+00 1.72413917E-01 2.30536845E-01
12  8-1.12327056E-02 0.00000000E+00 2.72402011E-02 4.37853748E-02-4.52581008E-03
12  9-8.97834461E-03 1.32255800E-02 0.00000000E+00 0.00000000E+00 1.02744054E-03
12 10-1.66250010E-03 2.22058349E-03 0.00000000E+00 1.72413917E-01-2.30536845E-01
12 11 1.12327056E-02 0.00000000E+00 2.72402011E-02-4.37853748E-02 4.52581008E-03
12 12 8.97834461E-03-1.32255800E-02 0.00000000E+00 0.00000000E+00 1.02744054E-03
12 13 0.00000000E+00 0.00000000E+00 0.00000000E+00-2.47605352E-01 0.00000000E+00
12 14 0.00000000E+00 0.00000000E+00-1.03510967E-01 0.00000000E+00 0.00000000E+00
12 15 0.00000000E+00 0.00000000E+00 0.00000000E+00 0.00000000E+00-1.30034857E-02
12 16 0.00000000E+00 0.00000000E+00 0.00000000E+00-3.17268448E-03 0.00000000E+00
12 17 8.20398322E-03 1.14556502E-02 0.00000000E+00 1.56184712E-03 3.11886027E-03
12 18-8.20398322E-03-1.14556502E-02 0.00000000E+00 1.56184712E-03-3.11886027E-03
12 19-3.75021508E-02-3.38231524E-02 0.00000000E+00 3.03183391E-04-1.01127566E-03
12 20 3.75021508E-02 3.38231524E-02 0.00000000E+00 3.03183391E-04 1.01127566E-03
13  1 2.50840882E-02-6.40519268E-02 0.00000000E+00-2.37740015E-01-1.78379489E-01
13  2-8.58153638E-02 0.00000000E+00-1.54515950E-01-1.03839786E-01-6.84722499E-03
13  3 5.94806424E-04 3.90004688E-03 0.00000000E+00 0.00000000E+00 1.87170148E-02
13  4-2.50840882E-02 6.40519268E-02 0.00000000E+00-2.37740015E-01 1.78379489E-01
13  5 8.58153638E-02 0.00000000E+00-1.54515950E-01 1.03839786E-01 6.84722499E-03
13  6-5.94806424E-04-3.90004688E-03 0.00000000E+00 0.00000000E+00 1.87170148E-02
13  7-2.22153586E-02 5.45565565E-02 0.00000000E+00-2.40384314E-01 1.44061649E-01
13  8 1.81490003E-02 0.00000000E+00-9.68162228E-02 3.12338157E-02-3.18442649E-03
13  9-1.40863757E-02 1.24612413E-02 0.00000000E+00 0.00000000E+00 5.51273190E-03
13 10 2.22153586E-02-5.45565565E-02 0.00000000E+00-2.40384314E-01-1.44061649E-01
13 11-1.81490003E-02 0.00000000E+00-9.68162228E-02-3.12338157E-02 3.18442649E-03
13 12 1.40863757E-02-1.24612413E-02 0.00000000E+00 0.00000000E+00 5.51273190E-03
13 13 0.00000000E+00 0.00000000E+00 0.00000000E+00 1.33980694E-01 0.00000000E+00
13 14 0.00000000E+00 0.00000000E+00 3.46227802E-02 0.00000000E+00 0.00000000E+00
13 15 0.00000000E+00 0.00000000E+00 0.00000000E+00 0.00000000E+00 1.67920558E-02
13 16 0.00000000E+00 0.00000000E+00 0.00000000E+00 1.39821641E-03 0.00000000E+00
13 17-1.39579039E-01-1.03582973E-01 0.00000000E+00 5.56864558E-03-3.21801398E-03
13 18 1.39579039E-01 1.03582973E-01 0.00000000E+00 5.56864558E-03 3.21801398E-03
13 19 8.30338401E-03-3.60330080E-02 0.00000000E+00-5.34801998E-04-4.09843836E-03
13 20-8.30338401E-03 3.60330080E-02 0.00000000E+00-5.34801998E-04 4.09843836E-03
14  1 6.19604809E-03-1.87532421E-02 0.00000000E+00-1.21240771E-01 1.96985628E-01
14  2 2.72806358E-03 0.00000000E+00-9.72204529E-02 1.10249181E-01-1.64445012E-03
14  3 1.11662919E-02-8.45948609E-03 0.00000000E+00 0.00000000E+00-5.03237706E-03
14  4 6.19604809E-03-1.87532421E-02 0.00000000E+00 1.21240771E-01 1.96985628E-01
14  5 2.72806358E-03 0.00000000E+00 9.72204529E-02 1.10249181E-01-1.64445012E-03
14  6 1.11662919E-02-8.45948609E-03 0.00000000E+00 0.00000000E+00 5.03237706E-03
14  7-3.40245364E-02 6.88482435E-02 0.00000000E+00 4.66224842E-02-2.04268746E-01
14  8 9.05632078E-02 0.00000000E+00 4.51281880E-02-7.87167268E-02 6.73353734E-04
14  9 1.68833020E-02-1.99071945E-02 0.00000000E+00 0.00000000E+00-2.19856691E-02
14 10-3.40245364E-02 6.88482435E-02 0.00000000E+00-4.66224842E-02-2.04268746E-01
14 11 9.05632078E-02 0.00000000E+00-4.51281880E-02-7.87167268E-02 6.73353734E-04
14 12 1.68833020E-02-1.99071945E-02 0.00000000E+00 0.00000000E+00 2.19856691E-02
14 13 5.10126507E-02-1.00370607E-01 0.00000000E+00 0.00000000E+00 2.35836287E-01
14 14-1.29806457E-01 0.00000000E+00 0.00000000E+00 1.46951836E-01 2.27118728E-03
14 15 1.74269231E-02-2.10418358E-02 0.00000000E+00 0.00000000E+00 0.00000000E+00
14 16-2.10870756E-01-1.40169110E-01 0.00000000E+00 0.00000000E+00-1.02824727E-02
14 17 1.42040306E-01 1.00120315E-01 0.00000000E+00-6.65099328E-03 2.28634876E-03
14 18 1.42040306E-01 1.00120315E-01 0.00000000E+00 6.65099328E-03 2.28634876E-03
14 19 3.47124046E-02 5.52328941E-02 0.00000000E+00-6.53247284E-03 1.02893068E-03
14 20 3.47124046E-02 5.52328941E-02 0.00000000E+00 6.53247284E-03 1.02893068E-03
15  1 0.00000000E+00 0.00000000E+00-3.33413486E-01 0.00000000E+00 0.00000000E+00
15  2 0.00000000E+00-2.40677291E-01 0.00000000E+00 0.00000000E+00 0.00000000E+00
15  3 0.00000000E+00 0.00000000E+00 9.25553012E-03 2.19180057E-02 0.00000000E+00
15  4 0.00000000E+00 0.00000000E+00-3.33413486E-01 0.00000000E+00 0.00000000E+00
15  5 0.00000000E+00-2.40677291E-01 0.00000000E+00 0.00000000E+00 0.00000000E+00
15  6 0.00000000E+00 0.00000000E+00-9.25553012E-03 2.19180057E-02 0.00000000E+00
15  7 0.00000000E+00 0.00000000E+00-2.07879564E-01 0.00000000E+00 0.00000000E+00
15  8 0.00000000E+00-1.16177350E-01 0.00000000E+00 0.00000000E+00 0.00000000E+00
15  9 0.00000000E+00 0.00000000E+00 5.96212182E-03-1.68512718E-02 0.00000000E+00
15 10 0.00000000E+00 0.00000000E+00-2.07879564E-01 0.00000000E+00 0.00000000E+00
15 11 0.00000000E+00-1.16177350E-01 0.00000000E+00 0.00000000E+00 0.00000000E+00
15 12 0.00000000E+00 0.00000000E+00-5.96212182E-03-1.68512718E-02 0.00000000E+00
15 13 0.00000000E+00 0.00000000E+00-1.55726310E-01 0.00000000E+00 0.00000000E+00
15 14 0.00000000E+00-9.09223732E-02 0.00000000E+00 0.00000000E+00 0.00000000E+00
15 15 0.00000000E+00 0.00000000E+00 0.00000000E+00-1.04018714E-02 0.00000000E+00
15 16 0.00000000E+00 0.00000000E+00-3.29728310E-03 0.00000000E+00 0.00000000E+00
15 17 0.00000000E+00 0.00000000E+00-3.28903958E-03 0.00000000E+00 0.00000000E+00
15 18 0.00000000E+00 0.00000000E+00-3.28903958E-03 0.00000000E+00 0.00000000E+00
15 19 0.00000000E+00 0.00000000E+00-6.73750488E-03 0.00000000E+00 0.00000000E+00
15 20 0.00000000E+00 0.00000000E+00-6.73750488E-03 0.00000000E+00 0.00000000E+00
16  1 0.00000000E+00 0.00000000E+00-3.89064366E-01 0.00000000E+00 0.00000000E+00
16  2 0.00000000E+00-2.85756777E-01 0.00000000E+00 0.00000000E+00 0.00000000E+00
16  3 0.00000000E+00 0.00000000E+00 8.55514741E-03 2.42031079E-02 0.00000000E+00
16  4 0.00000000E+00 0.00000000E+00 3.89064366E-01 0.00000000E+00 0.00000000E+00
16  5 0.00000000E+00 2.85756777E-01 0.00000000E+00 0.00000000E+00 0.00000000E+00
16  6 0.00000000E+00 0.00000000E+00 8.55514741E-03-2.42031079E-02 0.00000000E+00
16  7 0.00000000E+00 0.00000000E+00-1.86079437E-01 0.00000000E+00 0.00000000E+00
16  8 0.00000000E+00-1.05832121E-01 0.00000000E+00 0.00000000E+00 0.00000000E+00
16  9 0.00000000E+00 0.00000000E+00-2.28456837E-03-2.35670862E-02 0.00000000E+00
16 10 0.00000000E+00 0.00000000E+00 1.86079437E-01 0.00000000E+00 0.00000000E+00
16 11 0.00000000E+00 1.05832121E-01 0.00000000E+00 0.00000000E+00 0.00000000E+00
16 12 0.00000000E+00 0.00000000E+00-2.28456837E-03 2.35670862E-02 0.00000000E+00
16 13 0.00000000E+00 0.00000000E+00 0.00000000E+00 0.00000000E+00 0.00000000E+00
16 14 0.00000000E+00 0.00000000E+00 0.00000000E+00 0.00000000E+00 0.00000000E+00
16 15 0.00000000E+00 0.00000000E+00-9.48416177E-03 0.00000000E+00 0.00000000E+00
16 16 0.00000000E+00 0.00000000E+00 0.00000000E+00 0.00000000E+00 0.00000000E+00
16 17 0.00000000E+00 0.00000000E+00-3.13922657E-03 0.00000000E+00 0.00000000E+00
16 18 0.00000000E+00 0.00000000E+00 3.13922657E-03 0.00000000E+00 0.00000000E+00
16 19 0.00000000E+00 0.00000000E+00-5.42604956E-03 0.00000000E+00 0.00000000E+00
16 20 0.00000000E+00 0.00000000E+00 5.42604956E-03 0.00000000E+00 0.00000000E+00
17  1-2.55519226E-02 6.69255039E-02 0.00000000E+00 3.35796581E-01 9.46329935E-02
17  2 8.99757064E-02 0.00000000E+00 2.63574697E-01 7.38454212E-02 8.97341990E-03
17  3-1.06367343E-02-7.72475807E-04 0.00000000E+00 0.00000000E+00-7.36871717E-03
17  4-2.55519226E-02 6.69255039E-02 0.00000000E+00-3.35796581E-01 9.46329935E-02
17  5 8.99757064E-02 0.00000000E+00-2.63574697E-01 7.38454212E-02 8.97341990E-03
17  6-1.06367343E-02-7.72475807E-04 0.00000000E+00 0.00000000E+00 7.36871717E-03
17  7 4.21751757E-03-3.50290297E-03 0.00000000E+00-1.40378295E-01-6.01535028E-02
17  8-8.54227051E-03 0.00000000E+00-1.68167610E-02 1.61278499E-02 3.49885506E-03
17  9 1.28293061E-02-1.25109405E-02 0.00000000E+00 0.00000000E+00 2.46624047E-02
17 10 4.21751757E-03-3.50290297E-03 0.00000000E+00 1.40378295E-01-6.01535028E-02
17 11-8.54227051E-03 0.00000000E+00 1.68167610E-02 1.61278499E-02 3.49885506E-03
17 12 1.28293061E-02-1.25109405E-02 0.00000000E+00 0.00000000E+00-2.46624047E-02
17 13-3.66708630E-02 7.40955886E-02 0.00000000E+00 0.00000000E+00 2.58505809E-01
17 14 1.60751969E-01 0.00000000E+00 0.00000000E+00 1.19409305E-01-2.30098681E-04
17 15 7.81360187E-03-1.06228515E-02 0.00000000E+00 0.00000000E+00 0.00000000E+00
17 16-1.44904865E-01-1.44032367E-01 0.00000000E+00 0.00000000E+00-6.37100160E-03
17 17-7.90462392E-02-8.12364435E-02 0.00000000E+00 2.08268276E-03-3.14603579E-03
17 18-7.90462392E-02-8.12364435E-02 0.00000000E+00-2.08268276E-03-3.14603579E-03
17 19-3.87549143E-02-4.53398352E-02 0.00000000E+00 9.33775470E-03 4.29432826E-03
17 20-3.87549143E-02-4.53398352E-02 0.00000000E+00-9.33775470E-03 4.29432826E-03
18  1-9.20358473E-03 3.33331406E-02 0.00000000E+00 3.69840683E-01-2.97361209E-02
18  2-1.05506106E-02 0.00000000E+00 3.06886346E-01-1.78372529E-02 7.84963187E-03
18  3-9.60351378E-03 4.77937429E-03 0.00000000E+00 0.00000000E+00-4.02656404E-03
18  4 9.20358473E-03-3.33331406E-02 0.00000000E+00 3.69840683E-01 2.97361209E-02
18  5 1.05506106E-02 0.00000000E+00 3.06886346E-01 1.78372529E-02-7.84963187E-03
18  6 9.60351378E-03-4.77937429E-03 0.00000000E+00 0.00000000E+00-4.02656404E-03
18  7-4.85223216E-03 1.45752499E-02 0.00000000E+00-1.92810449E-01-5.76318775E-03
18  8-1.56479969E-02 0.00000000E+00-7.39857407E-02 6.97154275E-02 6.83132120E-04
18  9-1.76194091E-03-5.48700669E-04 0.00000000E+00 0.00000000E+00 3.68951721E-02
18 10 4.85223216E-03-1.45752499E-02 0.00000000E+00-1.92810449E-01 5.76318775E-03
18 11 1.56479969E-02 0.00000000E+00-7.39857407E-02-6.97154275E-02-6.83132120E-04
18 12 1.76194091E-03 5.48700669E-04 0.00000000E+00 0.00000000E+00 3.68951721E-02
18 13 0.00000000E+00 0.00000000E+00 0.00000000E+00 2.36641044E-01 0.00000000E+00
18 14 0.00000000E+00 0.00000000E+00 1.77086858E-01 0.00000000E+00 0.00000000E+00
18 15 0.00000000E+00 0.00000000E+00 0.00000000E+00 0.00000000E+00 1.38612129E-02