!
! Test D4h point group symmetry with a NEO calculation
! of H2 with both nuclei QM.
!    
! FINAL ENERGY IS       -1.0481625100 AFTER  10 ITERATIONS
!
 $CONTRL SCFTYP=RHF RUNTYP=ENERGY $END
 $SYSTEM TIMLIM=50 MEMORY=6000000 $END
 $SCF    SOSCF=.F. DIIS=.T. ETHRSH=1.5 
         DIRSCF=.f. FDIFF=.f. $END
 $NEO    NEOSCF=RONHF BASNUC=DZSPDN NUNIQN=1
         IUNIQN(1)=1 NUMULT=3 
         DIRNUC=.f. SYMNUC=.T. $END
 $BASIS  GBASIS=N31 NGAUSS=6 NPFUNC=1 NDFUNC=1 $END
 $GUESS  GUESS=MOREAD NORB=10 $END
 $DATA
  -------- H2 both nuclei QM --------
 DNH 4

 H           1.0       .0000000000   .0000000000   -.3671636861
 $END
--- OPTIMIZED RHF      MO-S --- GENERATED AT Tue Sep 23 08:40:22 2003
E=       -1.1313335880, E(NUC)=     .7223570323
 $VEC   
 1  1-3.19465474E-01-2.73453396E-01 0.00000000E+00 0.00000000E+00 1.82280928E-02
 1  2-3.19465474E-01-2.73453396E-01 0.00000000E+00 0.00000000E+00-1.82280928E-02
 2  1-1.19034736E-01-1.73970039E+00 0.00000000E+00 0.00000000E+00 2.64589686E-03
 2  2 1.19034736E-01 1.73970039E+00 0.00000000E+00 0.00000000E+00 2.64589686E-03
 3  1 7.43436038E-01-6.77280326E-01 0.00000000E+00 0.00000000E+00-3.39360593E-02
 3  2 7.43436038E-01-6.77280326E-01 0.00000000E+00 0.00000000E+00 3.39360593E-02
 4  1-8.75309793E-01 1.39800352E+00 0.00000000E+00 0.00000000E+00-2.89584872E-01
 4  2 8.75309793E-01-1.39800352E+00 0.00000000E+00 0.00000000E+00-2.89584872E-01
 5  1 0.00000000E+00 0.00000000E+00 6.08913280E-01 0.00000000E+00 0.00000000E+00
 5  2 0.00000000E+00 0.00000000E+00 6.08913280E-01 0.00000000E+00 0.00000000E+00
 6  1 0.00000000E+00 0.00000000E+00 0.00000000E+00 6.08913280E-01 0.00000000E+00
 6  2 0.00000000E+00 0.00000000E+00 0.00000000E+00 6.08913280E-01 0.00000000E+00
 7  1 3.87387899E-01-1.87260963E-01 0.00000000E+00 0.00000000E+00 6.50599221E-01
 7  2 3.87387899E-01-1.87260963E-01 0.00000000E+00 0.00000000E+00-6.50599221E-01
 8  1 0.00000000E+00 0.00000000E+00 0.00000000E+00-8.76064815E-01 0.00000000E+00
 8  2 0.00000000E+00 0.00000000E+00 0.00000000E+00 8.76064815E-01 0.00000000E+00
 9  1 0.00000000E+00 0.00000000E+00 8.76064815E-01 0.00000000E+00 0.00000000E+00
 9  2 0.00000000E+00 0.00000000E+00-8.76064815E-01 0.00000000E+00 0.00000000E+00
10  1-1.50556800E+00-1.51951479E-01 0.00000000E+00 0.00000000E+00 1.60106177E+00
10  2 1.50556800E+00 1.51951479E-01 0.00000000E+00 0.00000000E+00 1.60106177E+00
 $END
