!
! Test the C3v point group.
! C3v NEO calculation on ammonia with all hydrogen
! nuclei treated QM. Nuclear molecular orbitals
! are symmetry adapted.
!
!  FINAL ENERGY IS      -55.3317117774 AFTER  30 ITERATIONS
!
 $CONTRL SCFTYP=RHF RUNTYP=ENERGY $END
 $SYSTEM TIMLIM=50 MEMORY=6000000 $END
 $SCF    SOSCF=.F. DIIS=.T. ETHRSH=1.5 
         DIRSCF=.f. FDIFF=.f. $END
 $NEO    NEOSCF=RONHF BASNUC=DZSPNB NUNIQN=1
         IUNIQN(1)=2 NUMULT=4 
         DIRNUC=.f. SYMNUC=.t. $END
 $BASIS  GBASIS=STO NGAUSS=3 $END
 $GUESS  GUESS=MOREAD NORB=8 $END
 $DATA
  -------- AMMONIA --------
 CnV 3

        N 7.0  0.0000     0.0000     0.0000                        
        H 1.0  0.9504     0.0000    -0.3360                        
 $END
--- RHF ORBITALS --- GENERATED AT Tue Aug  5 18:30:37 2003
  -------- AMMONIA --------                                                     
E(RHF)=      -55.4523444250, E(NUC)=   11.9884220008,    8 ITERS
 $VEC
 1  1 9.93345899E-01 3.22263981E-02 0.00000000E+00 0.00000000E+00-4.49769656E-03
 1  2-6.72017189E-03-6.72017189E-03-6.72017189E-03
 2  1-2.20277784E-01 7.35931971E-01 0.00000000E+00 0.00000000E+00-1.24005048E-01
 2  2 1.61568121E-01 1.61568121E-01 1.61568121E-01
 3  1 0.00000000E+00 0.00000000E+00 5.90889094E-01 0.00000000E+00 0.00000000E+00
 3  2-2.46101467E-01-2.46101467E-01 4.92202933E-01
 4  1 0.00000000E+00 0.00000000E+00 0.00000000E+00 5.90889094E-01 0.00000000E+00
 4  2 4.26260244E-01-4.26260244E-01 0.00000000E+00
 5  1-8.02079764E-02 4.03120638E-01 0.00000000E+00 0.00000000E+00 9.14339516E-01
 5  2-1.08884447E-01-1.08884447E-01-1.08884447E-01
 6  1-1.88870947E-01 1.29191103E+00 0.00000000E+00 0.00000000E+00-5.07106568E-01
 6  2-7.21213462E-01-7.21213462E-01-7.21213462E-01
 7  1 0.00000000E+00 0.00000000E+00 1.06644754E+00 0.00000000E+00 0.00000000E+00
 7  2 5.02003543E-01 5.02003543E-01-1.00400709E+00
 8  1 0.00000000E+00 0.00000000E+00 0.00000000E+00 1.06644754E+00 0.00000000E+00
 8  2-8.69495642E-01 8.69495642E-01 0.00000000E+00
 $END
