!
! Test the D6h point group.
! D6h NEO calculation with all benzene hydrogen
! nuclei treated QM. Nuclear molecular orbitals
! are symmetry adapted.
!
!  FINAL ENERGY IS     -225.3407001554 AFTER   6 ITERATIONS
!
 $CONTRL SCFTYP=RHF RUNTYP=ENERGY $END
 $SYSTEM TIMLIM=50 MEMORY=6000000 $END
 $SCF    SOSCF=.F. DIIS=.T. ETHRSH=1.5 
         DIRSCF=.f. FDIFF=.f. $END
 $NEO    NEOSCF=RONHF BASNUC=DZSNB NUNIQN=1
         IUNIQN(1)=7 NUMULT=7
         DIRNUC=.f. SYMNUC=.T. $END
 $BASIS  GBASIS=STO NGAUSS=3 $END
 $GUESS  GUESS=MOREAD NORB=36 $END
 $DATA
  -------- BENZENE --------
 DnH 6

 C           6.0   1.0000000000    .0000000000    .0000000000
 H           1.0   2.0000000000    .0000000000   0.0000000000
 $END
--- RHF ORBITALS --- GENERATED AT Fri Aug 15 09:29:32 2003
  -------- BENZENE --------                                                     
E(RHF)=     -225.6023209225, E(NUC)=  273.5700168965,    7 ITERS
 $VEC
 1  1 4.03511615E-01 9.80269891E-03-4.87410042E-05-8.44218957E-05 0.00000000E+00
 1  2 4.03511615E-01 9.80269891E-03 4.87410042E-05-8.44218957E-05 0.00000000E+00
 1  3 4.03511615E-01 9.80269891E-03 9.74820084E-05 0.00000000E+00 0.00000000E+00
 1  4 4.03511615E-01 9.80269891E-03 4.87410042E-05 8.44218957E-05 0.00000000E+00
 1  5 4.03511615E-01 9.80269891E-03-4.87410042E-05 8.44218957E-05 0.00000000E+00
 1  6 4.03511615E-01 9.80269891E-03-9.74820084E-05 0.00000000E+00 0.00000000E+00
 1  7-2.97653712E-03-2.97653712E-03-2.97653712E-03-2.97653712E-03-2.97653712E-03
 1  8-2.97653712E-03
 2  1-2.85429909E-01-9.79822144E-03 1.34432470E-03 1.97761660E-03 0.00000000E+00
 2  2 2.85429909E-01 9.79822144E-03 1.34432470E-03-1.97761660E-03 0.00000000E+00
 2  3 5.70859818E-01 1.95964429E-02 4.76965713E-03 0.00000000E+00 0.00000000E+00
 2  4 2.85429909E-01 9.79822144E-03 1.34432470E-03 1.97761660E-03 0.00000000E+00
 2  5-2.85429909E-01-9.79822144E-03 1.34432470E-03-1.97761660E-03 0.00000000E+00
 2  6-5.70859818E-01-1.95964429E-02 4.76965713E-03 0.00000000E+00 0.00000000E+00
 2  7 1.61795485E-03-1.61795485E-03-3.23590970E-03-1.61795485E-03 1.61795485E-03
 2  8 3.23590970E-03
 3  1-4.94379104E-01-1.69710174E-02 1.97761660E-03 3.62787966E-03 0.00000000E+00
 3  2-4.94379104E-01-1.69710174E-02-1.97761660E-03 3.62787966E-03 0.00000000E+00
 3  3 0.00000000E+00 0.00000000E+00 0.00000000E+00 2.02547227E-04 0.00000000E+00
 3  4 4.94379104E-01 1.69710174E-02 1.97761660E-03 3.62787966E-03 0.00000000E+00
 3  5 4.94379104E-01 1.69710174E-02-1.97761660E-03 3.62787966E-03 0.00000000E+00
 3  6 0.00000000E+00 0.00000000E+00 0.00000000E+00 2.02547227E-04 0.00000000E+00
 3  7 2.80238000E-03 2.80238000E-03 0.00000000E+00-2.80238000E-03-2.80238000E-03
 3  8 0.00000000E+00
 4  1-2.86459574E-01-2.08289747E-02-1.09098204E-03 4.94366088E-03 0.00000000E+00
 4  2-2.86459574E-01-2.08289747E-02 1.09098204E-03 4.94366088E-03 0.00000000E+00
 4  3 5.72919149E-01 4.16579493E-02 7.47168978E-03 0.00000000E+00 0.00000000E+00
 4  4-2.86459574E-01-2.08289747E-02 1.09098204E-03-4.94366088E-03 0.00000000E+00
 4  5-2.86459574E-01-2.08289747E-02-1.09098204E-03-4.94366088E-03 0.00000000E+00
 4  6 5.72919149E-01 4.16579493E-02-7.47168978E-03 0.00000000E+00 0.00000000E+00
 4  7 2.15785734E-03 2.15785734E-03-4.31571469E-03 2.15785734E-03 2.15785734E-03
 4  8-4.31571469E-03
 5  1-4.96162537E-01-3.60768424E-02 4.94366088E-03 4.61746584E-03 0.00000000E+00
 5  2 4.96162537E-01 3.60768424E-02 4.94366088E-03-4.61746584E-03 0.00000000E+00
 5  3 0.00000000E+00 0.00000000E+00 0.00000000E+00-3.94520598E-03 0.00000000E+00
 5  4-4.96162537E-01-3.60768424E-02-4.94366088E-03-4.61746584E-03 0.00000000E+00
 5  5 4.96162537E-01 3.60768424E-02-4.94366088E-03 4.61746584E-03 0.00000000E+00
 5  6 0.00000000E+00 0.00000000E+00 0.00000000E+00 3.94520598E-03 0.00000000E+00
 5  7 3.73751856E-03-3.73751856E-03 0.00000000E+00 3.73751856E-03-3.73751856E-03
 5  8 0.00000000E+00
 6  1 4.05796153E-01 3.86286031E-02-2.76791139E-03-4.79416317E-03 0.00000000E+00
 6  2-4.05796153E-01-3.86286031E-02-2.76791139E-03 4.79416317E-03 0.00000000E+00
 6  3 4.05796153E-01 3.86286031E-02 5.53582279E-03 0.00000000E+00 0.00000000E+00
 6  4-4.05796153E-01-3.86286031E-02-2.76791139E-03-4.79416317E-03 0.00000000E+00
 6  5 4.05796153E-01 3.86286031E-02-2.76791139E-03 4.79416317E-03 0.00000000E+00
 6  6-4.05796153E-01-3.86286031E-02 5.53582279E-03 0.00000000E+00 0.00000000E+00
 6  7-3.58834925E-03 3.58834925E-03-3.58834925E-03 3.58834925E-03-3.58834925E-03
 6  8 3.58834925E-03
 7  1-1.25122809E-01 1.68954318E-01-6.54849589E-02-1.13423276E-01 0.00000000E+00
 7  2-1.25122809E-01 1.68954318E-01 6.54849589E-02-1.13423276E-01 0.00000000E+00
 7  3-1.25122809E-01 1.68954318E-01 1.30969918E-01 0.00000000E+00 0.00000000E+00
 7  4-1.25122809E-01 1.68954318E-01 6.54849589E-02 1.13423276E-01 0.00000000E+00
 7  5-1.25122809E-01 1.68954318E-01-6.54849589E-02 1.13423276E-01 0.00000000E+00
 7  6-1.25122809E-01 1.68954318E-01-1.30969918E-01 0.00000000E+00 0.00000000E+00
 7  7 2.77051155E-02 2.77051155E-02 2.77051155E-02 2.77051155E-02 2.77051155E-02
 7  8 2.77051155E-02
 8  1 9.48433776E-02-1.65946893E-01-1.31141389E-01 1.38153035E-01 0.00000000E+00
 8  2-9.48433776E-02 1.65946893E-01-1.31141389E-01-1.38153035E-01 0.00000000E+00
 8  3-1.89686755E-01 3.31893786E-01 1.08146686E-01 0.00000000E+00 0.00000000E+00
 8  4-9.48433776E-02 1.65946893E-01-1.31141389E-01 1.38153035E-01 0.00000000E+00
 8  5 9.48433776E-02-1.65946893E-01-1.31141389E-01-1.38153035E-01 0.00000000E+00
 8  6 1.89686755E-01-3.31893786E-01 1.08146686E-01 0.00000000E+00 0.00000000E+00
 8  7-3.96877830E-02 3.96877830E-02 7.93755659E-02 3.96877830E-02-3.96877830E-02
 8  8-7.93755659E-02
 9  1 1.64273549E-01-2.87428450E-01 1.38153035E-01 2.83839940E-02 0.00000000E+00
 9  2 1.64273549E-01-2.87428450E-01-1.38153035E-01 2.83839940E-02 0.00000000E+00
 9  3 0.00000000E+00 0.00000000E+00 0.00000000E+00-2.10904081E-01 0.00000000E+00
 9  4-1.64273549E-01 2.87428450E-01 1.38153035E-01 2.83839940E-02 0.00000000E+00
 9  5-1.64273549E-01 2.87428450E-01-1.38153035E-01 2.83839940E-02 0.00000000E+00
 9  6 0.00000000E+00 0.00000000E+00 0.00000000E+00-2.10904081E-01 0.00000000E+00
 9  7-6.87412566E-02-6.87412566E-02 0.00000000E+00 6.87412566E-02 6.87412566E-02
 9  8 0.00000000E+00
10  1 6.39967886E-02-9.39995548E-02 2.66769488E-01-1.79153689E-01 0.00000000E+00
10  2 6.39967886E-02-9.39995548E-02-2.66769488E-01-1.79153689E-01 0.00000000E+00
10  3-1.27993577E-01 1.87999110E-01-4.35338041E-02 0.00000000E+00 0.00000000E+00
10  4 6.39967886E-02-9.39995548E-02-2.66769488E-01 1.79153689E-01 0.00000000E+00
10  5 6.39967886E-02-9.39995548E-02 2.66769488E-01 1.79153689E-01 0.00000000E+00
10  6-1.27993577E-01 1.87999110E-01 4.35338041E-02 0.00000000E+00 0.00000000E+00
10  7-5.91061929E-02-5.91061929E-02 1.18212386E-01-5.91061929E-02-5.91061929E-02
10  8 1.18212386E-01
11  1-1.10845689E-01 1.62812005E-01 1.79153689E-01-5.99006267E-02 0.00000000E+00
11  2 1.10845689E-01-1.62812005E-01 1.79153689E-01 5.99006267E-02 0.00000000E+00
11  3 0.00000000E+00 0.00000000E+00 0.00000000E+00-3.70203919E-01 0.00000000E+00
11  4-1.10845689E-01 1.62812005E-01-1.79153689E-01 5.99006267E-02 0.00000000E+00
11  5 1.10845689E-01-1.62812005E-01-1.79153689E-01-5.99006267E-02 0.00000000E+00
11  6 0.00000000E+00 0.00000000E+00 0.00000000E+00 3.70203919E-01 0.00000000E+00
11  7 1.02374929E-01-1.02374929E-01 0.00000000E+00 1.02374929E-01-1.02374929E-01
11  8 0.00000000E+00
12  1 3.67041265E-02-1.44139191E-01-1.07534578E-01-1.86255353E-01 0.00000000E+00
12  2 3.67041265E-02-1.44139191E-01 1.07534578E-01-1.86255353E-01 0.00000000E+00
12  3 3.67041265E-02-1.44139191E-01 2.15069156E-01 0.00000000E+00 0.00000000E+00
12  4 3.67041265E-02-1.44139191E-01 1.07534578E-01 1.86255353E-01 0.00000000E+00
12  5 3.67041265E-02-1.44139191E-01-1.07534578E-01 1.86255353E-01 0.00000000E+00
12  6 3.67041265E-02-1.44139191E-01-2.15069156E-01 0.00000000E+00 0.00000000E+00
12  7-1.14272610E-01-1.14272610E-01-1.14272610E-01-1.14272610E-01-1.14272610E-01
12  8-1.14272610E-01
13  1 0.00000000E+00 0.00000000E+00 0.00000000E+00 0.00000000E+00 2.79965759E-01
13  2 0.00000000E+00 0.00000000E+00 0.00000000E+00 0.00000000E+00 2.79965759E-01
13  3 0.00000000E+00 0.00000000E+00 0.00000000E+00 0.00000000E+00 2.79965759E-01
13  4 0.00000000E+00 0.00000000E+00 0.00000000E+00 0.00000000E+00 2.79965759E-01
13  5 0.00000000E+00 0.00000000E+00 0.00000000E+00 0.00000000E+00 2.79965759E-01
13  6 0.00000000E+00 0.00000000E+00 0.00000000E+00 0.00000000E+00 2.79965759E-01
13  7 0.00000000E+00 0.00000000E+00 0.00000000E+00 0.00000000E+00 0.00000000E+00
13  8 0.00000000E+00
14  1 0.00000000E+00 0.00000000E+00 3.10669652E-01-1.79365207E-01 0.00000000E+00
14  2 0.00000000E+00 0.00000000E+00-3.10669652E-01-1.79365207E-01 0.00000000E+00
14  3 0.00000000E+00 0.00000000E+00 0.00000000E+00 3.58730414E-01 0.00000000E+00
14  4 0.00000000E+00 0.00000000E+00 3.10669652E-01-1.79365207E-01 0.00000000E+00
14  5 0.00000000E+00 0.00000000E+00-3.10669652E-01-1.79365207E-01 0.00000000E+00
14  6 0.00000000E+00 0.00000000E+00 0.00000000E+00 3.58730414E-01 0.00000000E+00
14  7 0.00000000E+00 0.00000000E+00 0.00000000E+00 0.00000000E+00 0.00000000E+00
14  8 0.00000000E+00
15  1 2.20760987E-02-3.20177589E-02 4.70633550E-02 2.32706618E-01 0.00000000E+00
15  2-2.20760987E-02 3.20177589E-02 4.70633550E-02-2.32706618E-01 0.00000000E+00
15  3-4.41521973E-02 6.40355179E-02 4.50123041E-01 0.00000000E+00 0.00000000E+00
15  4-2.20760987E-02 3.20177589E-02 4.70633550E-02 2.32706618E-01 0.00000000E+00
15  5 2.20760987E-02-3.20177589E-02 4.70633550E-02-2.32706618E-01 0.00000000E+00
15  6 4.41521973E-02-6.40355179E-02 4.50123041E-01 0.00000000E+00 0.00000000E+00
15  7 1.15236968E-01-1.15236968E-01-2.30473936E-01-1.15236968E-01 1.15236968E-01
15  8 2.30473936E-01
16  1 3.82369245E-02-5.54563852E-02 2.32706618E-01 3.15769812E-01 0.00000000E+00
16  2 3.82369245E-02-5.54563852E-02-2.32706618E-01 3.15769812E-01 0.00000000E+00
16  3 0.00000000E+00 0.00000000E+00 0.00000000E+00-8.72898736E-02 0.00000000E+00
16  4-3.82369245E-02 5.54563852E-02 2.32706618E-01 3.15769812E-01 0.00000000E+00
16  5-3.82369245E-02 5.54563852E-02-2.32706618E-01 3.15769812E-01 0.00000000E+00
16  6 0.00000000E+00 0.00000000E+00 0.00000000E+00-8.72898736E-02 0.00000000E+00
16  7 1.99596283E-01 1.99596283E-01 0.00000000E+00-1.99596283E-01-1.99596283E-01
16  8 0.00000000E+00
17  1-5.95662425E-02 1.76721976E-01 1.06542950E-01 1.84537802E-01 0.00000000E+00
17  2 5.95662425E-02-1.76721976E-01 1.06542950E-01-1.84537802E-01 0.00000000E+00
17  3-5.95662425E-02 1.76721976E-01-2.13085900E-01 0.00000000E+00 0.00000000E+00
17  4 5.95662425E-02-1.76721976E-01 1.06542950E-01 1.84537802E-01 0.00000000E+00
17  5-5.95662425E-02 1.76721976E-01 1.06542950E-01-1.84537802E-01 0.00000000E+00
17  6 5.95662425E-02-1.76721976E-01-2.13085900E-01 0.00000000E+00 0.00000000E+00
17  7 2.68758657E-01-2.68758657E-01 2.68758657E-01-2.68758657E-01 2.68758657E-01
17  8-2.68758657E-01
18  1 0.00000000E+00 0.00000000E+00 0.00000000E+00 0.00000000E+00-4.49224311E-01
18  2 0.00000000E+00 0.00000000E+00 0.00000000E+00 0.00000000E+00-4.49224311E-01
18  3 0.00000000E+00 0.00000000E+00 0.00000000E+00 0.00000000E+00 0.00000000E+00
18  4 0.00000000E+00 0.00000000E+00 0.00000000E+00 0.00000000E+00 4.49224311E-01
18  5 0.00000000E+00 0.00000000E+00 0.00000000E+00 0.00000000E+00 4.49224311E-01
18  6 0.00000000E+00 0.00000000E+00 0.00000000E+00 0.00000000E+00 0.00000000E+00
18  7 0.00000000E+00 0.00000000E+00 0.00000000E+00 0.00000000E+00 0.00000000E+00
18  8 0.00000000E+00
19  1 0.00000000E+00 0.00000000E+00 0.00000000E+00 0.00000000E+00-2.59359777E-01
19  2 0.00000000E+00 0.00000000E+00 0.00000000E+00 0.00000000E+00 2.59359777E-01
19  3 0.00000000E+00 0.00000000E+00 0.00000000E+00 0.00000000E+00 5.18719553E-01
19  4 0.00000000E+00 0.00000000E+00 0.00000000E+00 0.00000000E+00 2.59359777E-01
19  5 0.00000000E+00 0.00000000E+00 0.00000000E+00 0.00000000E+00-2.59359777E-01
19  6 0.00000000E+00 0.00000000E+00 0.00000000E+00 0.00000000E+00-5.18719553E-01
19  7 0.00000000E+00 0.00000000E+00 0.00000000E+00 0.00000000E+00 0.00000000E+00
19  8 0.00000000E+00
20  1-4.02757074E-03-3.96344174E-02-3.43921621E-01-5.07400013E-03 0.00000000E+00
20  2-4.02757074E-03-3.96344174E-02 3.43921621E-01-5.07400013E-03 0.00000000E+00
20  3 8.05514149E-03 7.92688349E-02-3.52710047E-01 0.00000000E+00 0.00000000E+00
20  4-4.02757074E-03-3.96344174E-02 3.43921621E-01 5.07400013E-03 0.00000000E+00
20  5-4.02757074E-03-3.96344174E-02-3.43921621E-01 5.07400013E-03 0.00000000E+00
20  6 8.05514149E-03 7.92688349E-02 3.52710047E-01 0.00000000E+00 0.00000000E+00
20  7-1.78226851E-01-1.78226851E-01 3.56453702E-01-1.78226851E-01-1.78226851E-01
20  8 3.56453702E-01
21  1-6.97595716E-03-6.86488247E-02-5.07400013E-03-3.49780571E-01 0.00000000E+00
21  2 6.97595716E-03 6.86488247E-02-5.07400013E-03 3.49780571E-01 0.00000000E+00
21  3 0.00000000E+00 0.00000000E+00 0.00000000E+00-3.40992145E-01 0.00000000E+00
21  4-6.97595716E-03-6.86488247E-02 5.07400013E-03 3.49780571E-01 0.00000000E+00
21  5 6.97595716E-03 6.86488247E-02 5.07400013E-03-3.49780571E-01 0.00000000E+00
21  6 0.00000000E+00 0.00000000E+00 0.00000000E+00 3.40992145E-01 0.00000000E+00
21  7-3.08697961E-01 3.08697961E-01 0.00000000E+00-3.08697961E-01 3.08697961E-01
21  8 0.00000000E+00
22  1 0.00000000E+00 0.00000000E+00 0.00000000E+00 0.00000000E+00-6.83782383E-01
22  2 0.00000000E+00 0.00000000E+00 0.00000000E+00 0.00000000E+00 6.83782383E-01
22  3 0.00000000E+00 0.00000000E+00 0.00000000E+00 0.00000000E+00 0.00000000E+00
22  4 0.00000000E+00 0.00000000E+00 0.00000000E+00 0.00000000E+00-6.83782383E-01
22  5 0.00000000E+00 0.00000000E+00 0.00000000E+00 0.00000000E+00 6.83782383E-01
22  6 0.00000000E+00 0.00000000E+00 0.00000000E+00 0.00000000E+00 0.00000000E+00
22  7 0.00000000E+00 0.00000000E+00 0.00000000E+00 0.00000000E+00 0.00000000E+00
22  8 0.00000000E+00
23  1 0.00000000E+00 0.00000000E+00 0.00000000E+00 0.00000000E+00-3.94781943E-01
23  2 0.00000000E+00 0.00000000E+00 0.00000000E+00 0.00000000E+00-3.94781943E-01
23  3 0.00000000E+00 0.00000000E+00 0.00000000E+00 0.00000000E+00 7.89563885E-01
23  4 0.00000000E+00 0.00000000E+00 0.00000000E+00 0.00000000E+00-3.94781943E-01
23  5 0.00000000E+00 0.00000000E+00 0.00000000E+00 0.00000000E+00-3.94781943E-01
23  6 0.00000000E+00 0.00000000E+00 0.00000000E+00 0.00000000E+00 7.89563885E-01
23  7 0.00000000E+00 0.00000000E+00 0.00000000E+00 0.00000000E+00 0.00000000E+00
23  8 0.00000000E+00
24  1 5.30058010E-02-3.64233136E-01-1.41160275E-01-2.44496767E-01 0.00000000E+00
24  2 5.30058010E-02-3.64233136E-01 1.41160275E-01-2.44496767E-01 0.00000000E+00
24  3 5.30058010E-02-3.64233136E-01 2.82320549E-01 0.00000000E+00 0.00000000E+00
24  4 5.30058010E-02-3.64233136E-01 1.41160275E-01 2.44496767E-01 0.00000000E+00
24  5 5.30058010E-02-3.64233136E-01-1.41160275E-01 2.44496767E-01 0.00000000E+00
24  6 5.30058010E-02-3.64233136E-01-2.82320549E-01 0.00000000E+00 0.00000000E+00
24  7 5.56595672E-01 5.56595672E-01 5.56595672E-01 5.56595672E-01 5.56595672E-01
24  8 5.56595672E-01
25  1-1.98995794E-02 9.36584338E-02 3.55705281E-01 1.42192036E-01 0.00000000E+00
25  2 1.98995794E-02-9.36584338E-02 3.55705281E-01-1.42192036E-01 0.00000000E+00
25  3 3.97991587E-02-1.87316868E-01 6.01989111E-01 0.00000000E+00 0.00000000E+00
25  4 1.98995794E-02-9.36584338E-02 3.55705281E-01 1.42192036E-01 0.00000000E+00
25  5-1.98995794E-02 9.36584338E-02 3.55705281E-01-1.42192036E-01 0.00000000E+00
25  6-3.97991587E-02 1.87316868E-01 6.01989111E-01 0.00000000E+00 0.00000000E+00
25  7-3.84339595E-01 3.84339595E-01 7.68679190E-01 3.84339595E-01-3.84339595E-01
25  8-7.68679190E-01
26  1-3.44670825E-02 1.62221166E-01 1.42192036E-01 5.19894501E-01 0.00000000E+00
26  2-3.44670825E-02 1.62221166E-01-1.42192036E-01 5.19894501E-01 0.00000000E+00
26  3 0.00000000E+00 0.00000000E+00 0.00000000E+00 2.73610671E-01 0.00000000E+00
26  4 3.44670825E-02-1.62221166E-01 1.42192036E-01 5.19894501E-01 0.00000000E+00
26  5 3.44670825E-02-1.62221166E-01-1.42192036E-01 5.19894501E-01 0.00000000E+00
26  6 0.00000000E+00 0.00000000E+00 0.00000000E+00 2.73610671E-01 0.00000000E+00
26  7-6.65695706E-01-6.65695706E-01 0.00000000E+00 6.65695706E-01 6.65695706E-01
26  8 0.00000000E+00
27  1 0.00000000E+00 0.00000000E+00 0.00000000E+00 0.00000000E+00 7.14386886E-01
27  2 0.00000000E+00 0.00000000E+00 0.00000000E+00 0.00000000E+00-7.14386886E-01
27  3 0.00000000E+00 0.00000000E+00 0.00000000E+00 0.00000000E+00 7.14386886E-01
27  4 0.00000000E+00 0.00000000E+00 0.00000000E+00 0.00000000E+00-7.14386886E-01
27  5 0.00000000E+00 0.00000000E+00 0.00000000E+00 0.00000000E+00 7.14386886E-01
27  6 0.00000000E+00 0.00000000E+00 0.00000000E+00 0.00000000E+00-7.14386886E-01
27  7 0.00000000E+00 0.00000000E+00 0.00000000E+00 0.00000000E+00 0.00000000E+00
27  8 0.00000000E+00
28  1-3.92822283E-02 3.26867217E-01 3.21136110E-01 2.46115068E-01 0.00000000E+00
28  2-3.92822283E-02 3.26867217E-01-3.21136110E-01 2.46115068E-01 0.00000000E+00
28  3 7.85644567E-02-6.53734434E-01 7.47419912E-01 0.00000000E+00 0.00000000E+00
28  4-3.92822283E-02 3.26867217E-01-3.21136110E-01-2.46115068E-01 0.00000000E+00
28  5-3.92822283E-02 3.26867217E-01 3.21136110E-01-2.46115068E-01 0.00000000E+00
28  6 7.85644567E-02-6.53734434E-01-7.47419912E-01 0.00000000E+00 0.00000000E+00
28  7-4.08280906E-01-4.08280906E-01 8.16561811E-01-4.08280906E-01-4.08280906E-01
28  8 8.16561811E-01
29  1-6.80388153E-02 5.66150627E-01 2.46115068E-01 6.05325311E-01 0.00000000E+00
29  2 6.80388153E-02-5.66150627E-01 2.46115068E-01-6.05325311E-01 0.00000000E+00
29  3 0.00000000E+00 0.00000000E+00 0.00000000E+00 1.79041509E-01 0.00000000E+00
29  4-6.80388153E-02 5.66150627E-01-2.46115068E-01-6.05325311E-01 0.00000000E+00
29  5 6.80388153E-02-5.66150627E-01-2.46115068E-01 6.05325311E-01 0.00000000E+00
29  6 0.00000000E+00 0.00000000E+00 0.00000000E+00-1.79041509E-01 0.00000000E+00
29  7-7.07163272E-01 7.07163272E-01 0.00000000E+00-7.07163272E-01 7.07163272E-01
29  8 0.00000000E+00
30  1-9.27819449E-02 7.66741862E-01 2.03905158E-01 3.53174094E-01 0.00000000E+00
30  2 9.27819449E-02-7.66741862E-01 2.03905158E-01-3.53174094E-01 0.00000000E+00
30  3-9.27819449E-02 7.66741862E-01-4.07810317E-01 0.00000000E+00 0.00000000E+00
30  4 9.27819449E-02-7.66741862E-01 2.03905158E-01 3.53174094E-01 0.00000000E+00
30  5-9.27819449E-02 7.66741862E-01 2.03905158E-01-3.53174094E-01 0.00000000E+00
30  6 9.27819449E-02-7.66741862E-01-4.07810317E-01 0.00000000E+00 0.00000000E+00
30  7-5.90712373E-01 5.90712373E-01-5.90712373E-01 5.90712373E-01-5.90712373E-01
30  8 5.90712373E-01
31  1 2.49390687E-02-6.99942671E-01 1.10617363E+00-6.05039798E-01 0.00000000E+00
31  2-2.49390687E-02 6.99942671E-01 1.10617363E+00 6.05039798E-01 0.00000000E+00
31  3-4.98781373E-02 1.39988534E+00 5.82139561E-02 0.00000000E+00 0.00000000E+00
31  4-2.49390687E-02 6.99942671E-01 1.10617363E+00-6.05039798E-01 0.00000000E+00
31  5 2.49390687E-02-6.99942671E-01 1.10617363E+00 6.05039798E-01 0.00000000E+00
31  6 4.98781373E-02-1.39988534E+00 5.82139561E-02 0.00000000E+00 0.00000000E+00
31  7 1.24885576E-01-1.24885576E-01-2.49771152E-01-1.24885576E-01 1.24885576E-01
31  8 2.49771152E-01
32  1 4.31957340E-02-1.21233627E+00-6.05039798E-01 4.07533846E-01 0.00000000E+00
32  2 4.31957340E-02-1.21233627E+00 6.05039798E-01 4.07533846E-01 0.00000000E+00
32  3 0.00000000E+00 0.00000000E+00 0.00000000E+00 1.45549352E+00 0.00000000E+00
32  4-4.31957340E-02 1.21233627E+00-6.05039798E-01 4.07533846E-01 0.00000000E+00
32  5-4.31957340E-02 1.21233627E+00 6.05039798E-01 4.07533846E-01 0.00000000E+00
32  6 0.00000000E+00 0.00000000E+00 0.00000000E+00 1.45549352E+00 0.00000000E+00
32  7 2.16308162E-01 2.16308162E-01 0.00000000E+00-2.16308162E-01-2.16308162E-01
32  8 0.00000000E+00
33  1 5.93623189E-02-1.19557524E+00-3.18312886E-01 7.28512982E-01 0.00000000E+00
33  2 5.93623189E-02-1.19557524E+00 3.18312886E-01 7.28512982E-01 0.00000000E+00
33  3-1.18724638E-01 2.39115048E+00 9.43508613E-01 0.00000000E+00 0.00000000E+00
33  4 5.93623189E-02-1.19557524E+00 3.18312886E-01-7.28512982E-01 0.00000000E+00
33  5 5.93623189E-02-1.19557524E+00-3.18312886E-01-7.28512982E-01 0.00000000E+00
33  6-1.18724638E-01 2.39115048E+00-9.43508613E-01 0.00000000E+00 0.00000000E+00
33  7 9.13793429E-03 9.13793429E-03-1.82758686E-02 9.13793429E-03 9.13793429E-03
33  8-1.82758686E-02
34  1 1.02818552E-01-2.07079706E+00 7.28512982E-01 5.22901447E-01 0.00000000E+00
34  2-1.02818552E-01 2.07079706E+00 7.28512982E-01-5.22901447E-01 0.00000000E+00
34  3 0.00000000E+00 0.00000000E+00 0.00000000E+00-7.38920052E-01 0.00000000E+00
34  4 1.02818552E-01-2.07079706E+00-7.28512982E-01-5.22901447E-01 0.00000000E+00
34  5-1.02818552E-01 2.07079706E+00-7.28512982E-01 5.22901447E-01 0.00000000E+00
34  6 0.00000000E+00 0.00000000E+00 0.00000000E+00 7.38920052E-01 0.00000000E+00
34  7 1.58273665E-02-1.58273665E-02 0.00000000E+00 1.58273665E-02-1.58273665E-02
34  8 0.00000000E+00
35  1 0.00000000E+00 0.00000000E+00 1.18940370E+00-6.86702547E-01 0.00000000E+00
35  2 0.00000000E+00 0.00000000E+00 1.18940370E+00 6.86702547E-01 0.00000000E+00
35  3 0.00000000E+00 0.00000000E+00 0.00000000E+00 1.37340509E+00 0.00000000E+00
35  4 0.00000000E+00 0.00000000E+00-1.18940370E+00 6.86702547E-01 0.00000000E+00
35  5 0.00000000E+00 0.00000000E+00-1.18940370E+00-6.86702547E-01 0.00000000E+00
35  6 0.00000000E+00 0.00000000E+00 0.00000000E+00-1.37340509E+00 0.00000000E+00
35  7 0.00000000E+00 0.00000000E+00 0.00000000E+00 0.00000000E+00 0.00000000E+00
35  8 0.00000000E+00
36  1-7.14661424E-02 2.31337528E+00-5.69050422E-01-9.85624243E-01 0.00000000E+00
36  2 7.14661424E-02-2.31337528E+00-5.69050422E-01 9.85624243E-01 0.00000000E+00
36  3-7.14661424E-02 2.31337528E+00 1.13810084E+00 0.00000000E+00 0.00000000E+00
36  4 7.14661424E-02-2.31337528E+00-5.69050422E-01-9.85624243E-01 0.00000000E+00
36  5-7.14661424E-02 2.31337528E+00-5.69050422E-01 9.85624243E-01 0.00000000E+00
36  6 7.14661424E-02-2.31337528E+00 1.13810084E+00 0.00000000E+00 0.00000000E+00
36  7 7.86397045E-02-7.86397045E-02 7.86397045E-02-7.86397045E-02 7.86397045E-02
36  8-7.86397045E-02
 $END
