!
! Test C1 NEO calculation of H2 with both nuclei QM.
! (Note the previous d4h job sym07 gave the same energy)
! 
! FINAL ENERGY IS       -1.0481625096 AFTER  12 ITERATIONS
!
 $CONTRL SCFTYP=RHF RUNTYP=ENERGY  $END
 $SYSTEM TIMLIM=50 MEMORY=6000000 $END
 $SCF    SOSCF=.F. DIIS=.T. ETHRSH=1.5 
         DIRSCF=.F. FDIFF=.f. $END
 $NEO    NEOSCF=RONHF BASNUC=DZSPDN NUNIQN=2
         IUNIQN(1)=1,2 NUMULT=3 
         DIRNUC=.F. SYMNUC=.T. $END
 $BASIS  GBASIS=N31 NGAUSS=6 NPFUNC=1 $END
 $GUESS  GUESS=MOREAD NORB=10 $END
 $DATA
  -------- H2 both nuclei QM --------
 C1
 H           1.0       .0000000000   .0000000000    .3671636861
 H           1.0       .0000000000   .0000000000   -.3671636861
 $END
--- RHF ORBITALS --- GENERATED AT Mon May 20 23:16:47 2002
E(RHF)=       -1.1313313424, E(NUC)=     .7206285225,    2 ITERS
 $VEC
 1  1 3.19208791E-01 2.73867054E-01-1.82352445E-02 0.00000000E+00 0.00000000E+00
 1  2 3.19208791E-01 2.73867054E-01 1.82352445E-02 0.00000000E+00 0.00000000E+00
 2  1 1.19328050E-01 1.73515722E+00-2.58802491E-03 0.00000000E+00 0.00000000E+00
 2  2-1.19328050E-01-1.73515722E+00-2.58802491E-03 0.00000000E+00 0.00000000E+00
 3  1 7.43998091E-01-6.77306471E-01-3.43284274E-02 0.00000000E+00 0.00000000E+00
 3  2 7.43998091E-01-6.77306471E-01 3.43284274E-02 0.00000000E+00 0.00000000E+00
 4  1-8.76769513E-01 1.39682561E+00-2.87862321E-01 0.00000000E+00 0.00000000E+00
 4  2 8.76769513E-01-1.39682561E+00-2.87862321E-01 0.00000000E+00 0.00000000E+00
 5  1 0.00000000E+00 0.00000000E+00 0.00000000E+00 6.09300236E-01 3.62491074E-03
 5  2 0.00000000E+00 0.00000000E+00 0.00000000E+00 6.09300236E-01 3.62491074E-03
 6  1 0.00000000E+00 0.00000000E+00 0.00000000E+00-3.62491074E-03 6.09300236E-01
 6  2 0.00000000E+00 0.00000000E+00 0.00000000E+00-3.62491074E-03 6.09300236E-01
 7  1-3.87119222E-01 1.87119666E-01-6.49927143E-01 0.00000000E+00 0.00000000E+00
 7  2-3.87119222E-01 1.87119666E-01 6.49927143E-01 0.00000000E+00 0.00000000E+00
 8  1 0.00000000E+00 0.00000000E+00 0.00000000E+00 0.00000000E+00 8.74883855E-01
 8  2 0.00000000E+00 0.00000000E+00 0.00000000E+00 0.00000000E+00-8.74883855E-01
 9  1 0.00000000E+00 0.00000000E+00 0.00000000E+00 8.74883855E-01 0.00000000E+00
 9  2 0.00000000E+00 0.00000000E+00 0.00000000E+00-8.74883855E-01 0.00000000E+00
10  1-1.49262549E+00-1.54206374E-01 1.59580786E+00 0.00000000E+00 0.00000000E+00
10  2 1.49262549E+00 1.54206374E-01 1.59580786E+00 0.00000000E+00 0.00000000E+00
  END
