!
! Tests Cl-H-Cl anion 1-proton Hamiltonian diagonalization
! method with D4h point group symmetry (gives all proton states
! but electronic orbitals are optimal for proton ground state
! NUCST=1 defasult).
! Note: This is not the optimized geometry for this system
!
!  FINAL ENERGY IS     -919.5868399758 AFTER   7 ITERATIONS
!
 $CONTRL SCFTYP=RHF RUNTYP=ENERGY ICHARG=-1 $END
 $SYSTEM TIMLIM=50 MEMORY=6000000 $END
 $SCF    SOSCF=.F. DIIS=.T. ETHRSH=1.5 
         DIRSCF=.F. FDIFF=.f. $END
 $NEO    NEOSCF=DIAGZN BASNUC=DZSPDN NUNIQN=1
         IUNIQN(1)=3 NUMULT=2
         DIRNUC=.F. SYMNUC=.T. $END
 $BASIS  GBASIS=N31 NGAUSS=6 NPFUNC=1 NDFUNC=1 $END
 $GUESS  GUESS=MOREAD NORB=43 $END
 $DATA
  -------- CL-H-Cl ANION WITH HYDROGEN NUCLEUS QM --------
 DNH 4

 CL         17.0       .0000000000   .0000000000  -1.6700000000
 H           1.0       .0000000000   .0000000000    .0000000000
 $END
--- RHF ORBITALS --- GENERATED AT Wed Oct  8 10:45:57 2003
  -------- H2 --------                                                          
E(RHF)=     -919.6169617604, E(NUC)=   56.5617598739,    9 ITERS
 $VEC
 1  1 7.04361428E-01 1.03528000E-02 0.00000000E+00 0.00000000E+00-2.13618078E-05
 1  2-1.25297185E-02 0.00000000E+00 0.00000000E+00 3.47066929E-05 1.05409262E-03
 1  3 0.00000000E+00 0.00000000E+00-5.92617512E-05 4.42223115E-03 4.42223115E-03
 1  4 4.42469392E-03 0.00000000E+00 0.00000000E+00 0.00000000E+00-7.04361428E-01
 1  5-1.03528000E-02 0.00000000E+00 0.00000000E+00-2.13618078E-05 1.25297185E-02
 1  6 0.00000000E+00 0.00000000E+00 3.47066929E-05-1.05409262E-03 0.00000000E+00
 1  7 0.00000000E+00-5.92617512E-05-4.42223115E-03-4.42223115E-03-4.42469392E-03
 1  8 0.00000000E+00 0.00000000E+00 0.00000000E+00 0.00000000E+00 0.00000000E+00
 1  9 0.00000000E+00 0.00000000E+00 6.50440698E-05
 2  1 7.04361520E-01 1.03577500E-02 0.00000000E+00 0.00000000E+00-1.64453846E-05
 2  2-1.25337849E-02 0.00000000E+00 0.00000000E+00 7.16335892E-06 1.04360720E-03
 2  3 0.00000000E+00 0.00000000E+00-3.51277313E-05 4.43937313E-03 4.43937313E-03
 2  4 4.44088911E-03 0.00000000E+00 0.00000000E+00 0.00000000E+00 7.04361520E-01
 2  5 1.03577500E-02 0.00000000E+00 0.00000000E+00 1.64453846E-05-1.25337849E-02
 2  6 0.00000000E+00 0.00000000E+00-7.16335892E-06 1.04360720E-03 0.00000000E+00
 2  7 0.00000000E+00 3.51277313E-05 4.43937313E-03 4.43937313E-03 4.44088911E-03
 2  8 0.00000000E+00 0.00000000E+00 0.00000000E+00 1.03629393E-04-1.93255220E-04
 2  9 0.00000000E+00 0.00000000E+00 0.00000000E+00
 3  1-2.02762055E-01 7.28748806E-01 0.00000000E+00 0.00000000E+00-1.25674812E-03
 3  2 1.83397578E-02 0.00000000E+00 0.00000000E+00-5.17735817E-04-4.25980898E-03
 3  3 0.00000000E+00 0.00000000E+00 5.67360032E-04-1.18434294E-03-1.18434294E-03
 3  4-1.04833337E-03 0.00000000E+00 0.00000000E+00 0.00000000E+00 2.02762055E-01
 3  5-7.28748806E-01 0.00000000E+00 0.00000000E+00-1.25674812E-03-1.83397578E-02
 3  6 0.00000000E+00 0.00000000E+00-5.17735817E-04 4.25980898E-03 0.00000000E+00
 3  7 0.00000000E+00 5.67360032E-04 1.18434294E-03 1.18434294E-03 1.04833337E-03
 3  8 0.00000000E+00 0.00000000E+00 0.00000000E+00 0.00000000E+00 0.00000000E+00
 3  9 0.00000000E+00 0.00000000E+00-3.36838410E-04
 4  1-2.02764102E-01 7.28783131E-01 0.00000000E+00 0.00000000E+00-1.31392827E-03
 4  2 1.84470076E-02 0.00000000E+00 0.00000000E+00-2.63477332E-04-5.10011151E-03
 4  3 0.00000000E+00 0.00000000E+00 1.03519109E-03-1.14351162E-03-1.14351162E-03
 4  4-1.23598517E-03 0.00000000E+00 0.00000000E+00 0.00000000E+00-2.02764102E-01
 4  5 7.28783131E-01 0.00000000E+00 0.00000000E+00 1.31392827E-03 1.84470076E-02
 4  6 0.00000000E+00 0.00000000E+00 2.63477332E-04-5.10011151E-03 0.00000000E+00
 4  7 0.00000000E+00-1.03519109E-03-1.14351162E-03-1.14351162E-03-1.23598517E-03
 4  8 0.00000000E+00 0.00000000E+00 0.00000000E+00-3.90570984E-04 2.98776332E-03
 4  9 0.00000000E+00 0.00000000E+00 0.00000000E+00
 5  1-4.39550334E-04 1.57811568E-03 0.00000000E+00 0.00000000E+00 7.02246843E-01
 5  2-1.01702431E-03 0.00000000E+00 0.00000000E+00 1.54809111E-02 8.12644800E-04
 5  3 0.00000000E+00 0.00000000E+00-4.18621627E-03 1.77388579E-04 1.77388579E-04
 5  4-9.79163531E-05 0.00000000E+00 0.00000000E+00 0.00000000E+00 4.39550334E-04
 5  5-1.57811568E-03 0.00000000E+00 0.00000000E+00 7.02246843E-01 1.01702431E-03
 5  6 0.00000000E+00 0.00000000E+00 1.54809111E-02-8.12644800E-04 0.00000000E+00
 5  7 0.00000000E+00-4.18621627E-03-1.77388579E-04-1.77388579E-04 9.79163531E-05
 5  8 0.00000000E+00 0.00000000E+00 0.00000000E+00 0.00000000E+00 0.00000000E+00
 5  9 0.00000000E+00 0.00000000E+00 1.07018019E-03
 6  1-4.31178957E-04 1.61391674E-03 0.00000000E+00 0.00000000E+00 7.02339605E-01
 6  2-9.51336369E-04 0.00000000E+00 0.00000000E+00 1.50411463E-02 5.07381050E-04
 6  3 0.00000000E+00 0.00000000E+00-3.72513834E-03 3.32723016E-04 3.32723016E-04
 6  4 1.44364711E-04 0.00000000E+00 0.00000000E+00 0.00000000E+00-4.31178957E-04
 6  5 1.61391674E-03 0.00000000E+00 0.00000000E+00-7.02339605E-01-9.51336369E-04
 6  6 0.00000000E+00 0.00000000E+00-1.50411463E-02 5.07381050E-04 0.00000000E+00
 6  7 0.00000000E+00 3.72513834E-03 3.32723016E-04 3.32723016E-04 1.44364711E-04
 6  8 0.00000000E+00 0.00000000E+00 0.00000000E+00 4.59531576E-04-1.87676706E-03
 6  9 0.00000000E+00 0.00000000E+00 0.00000000E+00
 7  1 0.00000000E+00 0.00000000E+00 0.00000000E+00 7.02517991E-01 0.00000000E+00
 7  2 0.00000000E+00 0.00000000E+00 1.45272379E-02 0.00000000E+00 0.00000000E+00
 7  3 0.00000000E+00-3.36009510E-03 0.00000000E+00 0.00000000E+00 0.00000000E+00
 7  4 0.00000000E+00 0.00000000E+00 0.00000000E+00-7.64149714E-05 0.00000000E+00
 7  5 0.00000000E+00 0.00000000E+00-7.02517991E-01 0.00000000E+00 0.00000000E+00
 7  6 0.00000000E+00-1.45272379E-02 0.00000000E+00 0.00000000E+00 0.00000000E+00
 7  7 3.36009510E-03 0.00000000E+00 0.00000000E+00 0.00000000E+00 0.00000000E+00
 7  8 0.00000000E+00 0.00000000E+00-7.64149714E-05 0.00000000E+00 0.00000000E+00
 7  9 0.00000000E+00 0.00000000E+00 0.00000000E+00
 8  1 0.00000000E+00 0.00000000E+00 7.02517991E-01 0.00000000E+00 0.00000000E+00
 8  2 0.00000000E+00 1.45272379E-02 0.00000000E+00 0.00000000E+00 0.00000000E+00
 8  3-3.36009510E-03 0.00000000E+00 0.00000000E+00 0.00000000E+00 0.00000000E+00
 8  4 0.00000000E+00 0.00000000E+00-7.64149714E-05 0.00000000E+00 0.00000000E+00
 8  5 0.00000000E+00-7.02517991E-01 0.00000000E+00 0.00000000E+00 0.00000000E+00
 8  6-1.45272379E-02 0.00000000E+00 0.00000000E+00 0.00000000E+00 3.36009510E-03
 8  7 0.00000000E+00 0.00000000E+00 0.00000000E+00 0.00000000E+00 0.00000000E+00
 8  8 0.00000000E+00-7.64149714E-05 0.00000000E+00 0.00000000E+00 0.00000000E+00
 8  9 0.00000000E+00 0.00000000E+00 0.00000000E+00
 9  1 0.00000000E+00 0.00000000E+00 7.02549761E-01 0.00000000E+00 0.00000000E+00
 9  2 0.00000000E+00 1.43652245E-02 0.00000000E+00 0.00000000E+00 0.00000000E+00
 9  3-3.03629234E-03 0.00000000E+00 0.00000000E+00 0.00000000E+00 0.00000000E+00
 9  4 0.00000000E+00 0.00000000E+00-1.04772146E-04 0.00000000E+00 0.00000000E+00
 9  5 0.00000000E+00 7.02549761E-01 0.00000000E+00 0.00000000E+00 0.00000000E+00
 9  6 1.43652245E-02 0.00000000E+00 0.00000000E+00 0.00000000E+00-3.03629234E-03
 9  7 0.00000000E+00 0.00000000E+00 0.00000000E+00 0.00000000E+00 0.00000000E+00
 9  8 0.00000000E+00 1.04772146E-04 0.00000000E+00 0.00000000E+00 0.00000000E+00
 9  9 2.03721502E-05 0.00000000E+00 0.00000000E+00
10  1 0.00000000E+00 0.00000000E+00 0.00000000E+00 7.02549761E-01 0.00000000E+00
10  2 0.00000000E+00 0.00000000E+00 1.43652245E-02 0.00000000E+00 0.00000000E+00
10  3 0.00000000E+00-3.03629234E-03 0.00000000E+00 0.00000000E+00 0.00000000E+00
10  4 0.00000000E+00 0.00000000E+00 0.00000000E+00-1.04772146E-04 0.00000000E+00
10  5 0.00000000E+00 0.00000000E+00 7.02549761E-01 0.00000000E+00 0.00000000E+00
10  6 0.00000000E+00 1.43652245E-02 0.00000000E+00 0.00000000E+00 0.00000000E+00
10  7-3.03629234E-03 0.00000000E+00 0.00000000E+00 0.00000000E+00 0.00000000E+00
10  8 0.00000000E+00 0.00000000E+00 1.04772146E-04 0.00000000E+00 0.00000000E+00
10  9 0.00000000E+00 2.03721502E-05 0.00000000E+00
11  1 5.52071290E-02-2.54319536E-01 0.00000000E+00 0.00000000E+00 1.41001661E-02
11  2 4.87704479E-01 0.00000000E+00 0.00000000E+00-3.41708778E-02 2.39408152E-01
11  3 0.00000000E+00 0.00000000E+00-1.98036741E-03-2.32826977E-03-2.32826977E-03
11  4 1.16796647E-02 0.00000000E+00 0.00000000E+00 0.00000000E+00 5.52071290E-02
11  5-2.54319536E-01 0.00000000E+00 0.00000000E+00-1.41001661E-02 4.87704479E-01
11  6 0.00000000E+00 0.00000000E+00 3.41708778E-02 2.39408152E-01 0.00000000E+00
11  7 0.00000000E+00 1.98036741E-03-2.32826977E-03-2.32826977E-03 1.16796647E-02
11  8 0.00000000E+00 0.00000000E+00 0.00000000E+00 8.85623489E-02 5.43456092E-02
11  9 0.00000000E+00 0.00000000E+00 0.00000000E+00
12  1 5.76162053E-02-2.66401717E-01 0.00000000E+00 0.00000000E+00 3.28693746E-03
12  2 5.09766908E-01 0.00000000E+00 0.00000000E+00-7.91002262E-03 2.72527740E-01
12  3 0.00000000E+00 0.00000000E+00-7.09827835E-03-1.75990990E-03-1.75990990E-03
12  4 6.66542598E-03 0.00000000E+00 0.00000000E+00 0.00000000E+00-5.76162053E-02
12  5 2.66401717E-01 0.00000000E+00 0.00000000E+00 3.28693746E-03-5.09766908E-01
12  6 0.00000000E+00 0.00000000E+00-7.91002262E-03-2.72527740E-01 0.00000000E+00
12  7 0.00000000E+00-7.09827835E-03 1.75990990E-03 1.75990990E-03-6.66542598E-03
12  8 0.00000000E+00 0.00000000E+00 0.00000000E+00 0.00000000E+00 0.00000000E+00
12  9 0.00000000E+00 0.00000000E+00 1.44269889E-02
13  1 1.34073689E-02-6.39366591E-02 0.00000000E+00 0.00000000E+00-1.54904788E-01
13  2 1.29156160E-01 0.00000000E+00 0.00000000E+00 3.90097062E-01 1.39890403E-01
13  3 0.00000000E+00 0.00000000E+00 1.65435061E-01 8.56092921E-03 8.56092921E-03
13  4-3.47699819E-02 0.00000000E+00 0.00000000E+00 0.00000000E+00 1.34073689E-02
13  5-6.39366591E-02 0.00000000E+00 0.00000000E+00 1.54904788E-01 1.29156160E-01
13  6 0.00000000E+00 0.00000000E+00-3.90097062E-01 1.39890403E-01 0.00000000E+00
13  7 0.00000000E+00-1.65435061E-01 8.56092921E-03 8.56092921E-03-3.47699819E-02
13  8 0.00000000E+00 0.00000000E+00 0.00000000E+00-2.23000924E-01-2.73731988E-01
13  9 0.00000000E+00 0.00000000E+00 0.00000000E+00
14  1 0.00000000E+00 0.00000000E+00-1.88713267E-01 0.00000000E+00 0.00000000E+00
14  2 0.00000000E+00 4.78900107E-01 0.00000000E+00 0.00000000E+00 0.00000000E+00
14  3 3.19379344E-01 0.00000000E+00 0.00000000E+00 0.00000000E+00 0.00000000E+00
14  4 0.00000000E+00 0.00000000E+00-5.85060786E-03 0.00000000E+00 0.00000000E+00
14  5 0.00000000E+00-1.88713267E-01 0.00000000E+00 0.00000000E+00 0.00000000E+00
14  6 4.78900107E-01 0.00000000E+00 0.00000000E+00 0.00000000E+00 3.19379344E-01
14  7 0.00000000E+00 0.00000000E+00 0.00000000E+00 0.00000000E+00 0.00000000E+00
14  8 0.00000000E+00 5.85060786E-03 0.00000000E+00 0.00000000E+00 0.00000000E+00
14  9 1.06734138E-02 0.00000000E+00 0.00000000E+00
15  1 0.00000000E+00 0.00000000E+00 0.00000000E+00-1.88713267E-01 0.00000000E+00
15  2 0.00000000E+00 0.00000000E+00 4.78900107E-01 0.00000000E+00 0.00000000E+00
15  3 0.00000000E+00 3.19379344E-01 0.00000000E+00 0.00000000E+00 0.00000000E+00
15  4 0.00000000E+00 0.00000000E+00 0.00000000E+00-5.85060786E-03 0.00000000E+00
15  5 0.00000000E+00 0.00000000E+00-1.88713267E-01 0.00000000E+00 0.00000000E+00
15  6 0.00000000E+00 4.78900107E-01 0.00000000E+00 0.00000000E+00 0.00000000E+00
15  7 3.19379344E-01 0.00000000E+00 0.00000000E+00 0.00000000E+00 0.00000000E+00
15  8 0.00000000E+00 0.00000000E+00 5.85060786E-03 0.00000000E+00 0.00000000E+00
15  9 0.00000000E+00 1.06734138E-02 0.00000000E+00
16  1 0.00000000E+00 0.00000000E+00 0.00000000E+00-1.93208488E-01 0.00000000E+00
16  2 0.00000000E+00 0.00000000E+00 4.92650160E-01 0.00000000E+00 0.00000000E+00
16  3 0.00000000E+00 3.20039603E-01 0.00000000E+00 0.00000000E+00 0.00000000E+00
16  4 0.00000000E+00 0.00000000E+00 0.00000000E+00-2.99982184E-03 0.00000000E+00
16  5 0.00000000E+00 0.00000000E+00 1.93208488E-01 0.00000000E+00 0.00000000E+00
16  6 0.00000000E+00-4.92650160E-01 0.00000000E+00 0.00000000E+00 0.00000000E+00
16  7-3.20039603E-01 0.00000000E+00 0.00000000E+00 0.00000000E+00 0.00000000E+00
16  8 0.00000000E+00 0.00000000E+00-2.99982184E-03 0.00000000E+00 0.00000000E+00
16  9 0.00000000E+00 0.00000000E+00 0.00000000E+00
17  1 0.00000000E+00 0.00000000E+00-1.93208488E-01 0.00000000E+00 0.00000000E+00
17  2 0.00000000E+00 4.92650160E-01 0.00000000E+00 0.00000000E+00 0.00000000E+00
17  3 3.20039603E-01 0.00000000E+00 0.00000000E+00 0.00000000E+00 0.00000000E+00
17  4 0.00000000E+00 0.00000000E+00-2.99982184E-03 0.00000000E+00 0.00000000E+00
17  5 0.00000000E+00 1.93208488E-01 0.00000000E+00 0.00000000E+00 0.00000000E+00
17  6-4.92650160E-01 0.00000000E+00 0.00000000E+00 0.00000000E+00-3.20039603E-01
17  7 0.00000000E+00 0.00000000E+00 0.00000000E+00 0.00000000E+00 0.00000000E+00
17  8 0.00000000E+00-2.99982184E-03 0.00000000E+00 0.00000000E+00 0.00000000E+00
17  9 0.00000000E+00 0.00000000E+00 0.00000000E+00
18  1-2.11291195E-04 1.57768896E-03 0.00000000E+00 0.00000000E+00-1.98064481E-01
18  2 5.74891064E-03 0.00000000E+00 0.00000000E+00 5.04926001E-01-1.31832577E-02
18  3 0.00000000E+00 0.00000000E+00 3.36255448E-01 5.43627209E-03 5.43627209E-03
18  4-2.13595069E-02 0.00000000E+00 0.00000000E+00 0.00000000E+00 2.11291195E-04
18  5-1.57768896E-03 0.00000000E+00 0.00000000E+00-1.98064481E-01-5.74891064E-03
18  6 0.00000000E+00 0.00000000E+00 5.04926001E-01 1.31832577E-02 0.00000000E+00
18  7 0.00000000E+00 3.36255448E-01-5.43627209E-03-5.43627209E-03 2.13595069E-02
18  8 0.00000000E+00 0.00000000E+00 0.00000000E+00 0.00000000E+00 0.00000000E+00
18  9 0.00000000E+00 0.00000000E+00-3.28889670E-02
19  1-2.08544272E-02 9.64249448E-02 0.00000000E+00 0.00000000E+00-1.06512877E-01
19  2-2.21648147E-01 0.00000000E+00 0.00000000E+00 2.60967570E-01-4.41249625E-01
19  3 0.00000000E+00 0.00000000E+00 7.32653341E-01-3.71099340E-02-3.71099340E-02
19  4 8.44409273E-02 0.00000000E+00 0.00000000E+00 0.00000000E+00-2.08544272E-02
19  5 9.64249448E-02 0.00000000E+00 0.00000000E+00 1.06512877E-01-2.21648147E-01
19  6 0.00000000E+00 0.00000000E+00-2.60967570E-01-4.41249625E-01 0.00000000E+00
19  7 0.00000000E+00-7.32653341E-01-3.71099340E-02-3.71099340E-02 8.44409273E-02
19  8 0.00000000E+00 0.00000000E+00 0.00000000E+00 2.96734746E-01 1.66021048E+00
19  9 0.00000000E+00 0.00000000E+00 0.00000000E+00
20  1-4.53353769E-02 6.71583370E-02 0.00000000E+00 0.00000000E+00 1.02979848E-01
20  2-8.70732387E-01 0.00000000E+00 0.00000000E+00-3.94478161E-01 1.08007701E+00
20  3 0.00000000E+00 0.00000000E+00 4.05852480E-01-8.16664349E-02-8.16664349E-02
20  4-7.19457349E-02 0.00000000E+00 0.00000000E+00 0.00000000E+00 4.53353769E-02
20  5-6.71583370E-02 0.00000000E+00 0.00000000E+00 1.02979848E-01 8.70732387E-01
20  6 0.00000000E+00 0.00000000E+00-3.94478161E-01-1.08007701E+00 0.00000000E+00
20  7 0.00000000E+00 4.05852480E-01 8.16664349E-02 8.16664349E-02 7.19457349E-02
20  8 0.00000000E+00 0.00000000E+00 0.00000000E+00 0.00000000E+00 0.00000000E+00
20  9 0.00000000E+00 0.00000000E+00 9.28439431E-03
21  1-4.59504865E-02 3.29625320E-02 0.00000000E+00 0.00000000E+00-2.34593743E-02
21  2-9.63635274E-01 0.00000000E+00 0.00000000E+00 1.29568318E-01 1.64899113E+00
21  3 0.00000000E+00 0.00000000E+00-6.03200774E-01-4.36489357E-02-4.36489357E-02
21  4-2.33804512E-01 0.00000000E+00 0.00000000E+00 0.00000000E+00-4.59504865E-02
21  5 3.29625320E-02 0.00000000E+00 0.00000000E+00 2.34593743E-02-9.63635274E-01
21  6 0.00000000E+00 0.00000000E+00-1.29568318E-01 1.64899113E+00 0.00000000E+00
21  7 0.00000000E+00 6.03200774E-01-4.36489357E-02-4.36489357E-02-2.33804512E-01
21  8 0.00000000E+00 0.00000000E+00 0.00000000E+00-2.17405037E-01-1.15959175E+00
21  9 0.00000000E+00 0.00000000E+00 0.00000000E+00
22  1 0.00000000E+00 0.00000000E+00-2.18175260E-01 0.00000000E+00 0.00000000E+00
22  2 0.00000000E+00 8.31695666E-01 0.00000000E+00 0.00000000E+00 0.00000000E+00
22  3-8.22209719E-01 0.00000000E+00 0.00000000E+00 0.00000000E+00 0.00000000E+00
22  4 0.00000000E+00 0.00000000E+00 1.67632650E-02 0.00000000E+00 0.00000000E+00
22  5 0.00000000E+00-2.18175260E-01 0.00000000E+00 0.00000000E+00 0.00000000E+00
22  6 8.31695666E-01 0.00000000E+00 0.00000000E+00 0.00000000E+00-8.22209719E-01
22  7 0.00000000E+00 0.00000000E+00 0.00000000E+00 0.00000000E+00 0.00000000E+00
22  8 0.00000000E+00-1.67632650E-02 0.00000000E+00 0.00000000E+00 0.00000000E+00
22  9-1.81568134E-02 0.00000000E+00 0.00000000E+00
23  1 0.00000000E+00 0.00000000E+00 0.00000000E+00-2.18175260E-01 0.00000000E+00
23  2 0.00000000E+00 0.00000000E+00 8.31695666E-01 0.00000000E+00 0.00000000E+00
23  3 0.00000000E+00-8.22209719E-01 0.00000000E+00 0.00000000E+00 0.00000000E+00
23  4 0.00000000E+00 0.00000000E+00 0.00000000E+00 1.67632650E-02 0.00000000E+00
23  5 0.00000000E+00 0.00000000E+00-2.18175260E-01 0.00000000E+00 0.00000000E+00
23  6 0.00000000E+00 8.31695666E-01 0.00000000E+00 0.00000000E+00 0.00000000E+00
23  7-8.22209719E-01 0.00000000E+00 0.00000000E+00 0.00000000E+00 0.00000000E+00
23  8 0.00000000E+00 0.00000000E+00-1.67632650E-02 0.00000000E+00 0.00000000E+00
23  9 0.00000000E+00-1.81568134E-02 0.00000000E+00
24  1-9.32928904E-03 2.63177842E-02 0.00000000E+00 0.00000000E+00 2.19851890E-01
24  2-1.52756708E-01 0.00000000E+00 0.00000000E+00-8.40576584E-01-5.79221913E-02
24  3 0.00000000E+00 0.00000000E+00 1.06887848E+00-2.28734207E-02-2.28734207E-02
24  4 2.42958425E-02 0.00000000E+00 0.00000000E+00 0.00000000E+00-9.32928904E-03
24  5 2.63177842E-02 0.00000000E+00 0.00000000E+00-2.19851890E-01-1.52756708E-01
24  6 0.00000000E+00 0.00000000E+00 8.40576584E-01-5.79221913E-02 0.00000000E+00
24  7 0.00000000E+00-1.06887848E+00-2.28734207E-02-2.28734207E-02 2.42958425E-02
24  8 0.00000000E+00 0.00000000E+00 0.00000000E+00-7.88010090E-02 8.58506748E-01
24  9 0.00000000E+00 0.00000000E+00 0.00000000E+00
25  1 0.00000000E+00 0.00000000E+00 0.00000000E+00 2.18137781E-01 0.00000000E+00
25  2 0.00000000E+00 0.00000000E+00-8.48573776E-01 0.00000000E+00 0.00000000E+00
25  3 0.00000000E+00 9.03647382E-01 0.00000000E+00 0.00000000E+00 0.00000000E+00
25  4 0.00000000E+00 0.00000000E+00 0.00000000E+00 2.43609103E-02 0.00000000E+00
25  5 0.00000000E+00 0.00000000E+00-2.18137781E-01 0.00000000E+00 0.00000000E+00
25  6 0.00000000E+00 8.48573776E-01 0.00000000E+00 0.00000000E+00 0.00000000E+00
25  7-9.03647382E-01 0.00000000E+00 0.00000000E+00 0.00000000E+00 0.00000000E+00
25  8 0.00000000E+00 0.00000000E+00 2.43609103E-02 0.00000000E+00 0.00000000E+00
25  9 0.00000000E+00 0.00000000E+00 0.00000000E+00
26  1 0.00000000E+00 0.00000000E+00 2.18137781E-01 0.00000000E+00 0.00000000E+00
26  2 0.00000000E+00-8.48573776E-01 0.00000000E+00 0.00000000E+00 0.00000000E+00
26  3 9.03647382E-01 0.00000000E+00 0.00000000E+00 0.00000000E+00 0.00000000E+00
26  4 0.00000000E+00 0.00000000E+00 2.43609103E-02 0.00000000E+00 0.00000000E+00
26  5 0.00000000E+00-2.18137781E-01 0.00000000E+00 0.00000000E+00 0.00000000E+00
26  6 8.48573776E-01 0.00000000E+00 0.00000000E+00 0.00000000E+00-9.03647382E-01
26  7 0.00000000E+00 0.00000000E+00 0.00000000E+00 0.00000000E+00 0.00000000E+00
26  8 0.00000000E+00 2.43609103E-02 0.00000000E+00 0.00000000E+00 0.00000000E+00
26  9 0.00000000E+00 0.00000000E+00 0.00000000E+00
27  1 2.40296749E-02-9.96735896E-03 0.00000000E+00 0.00000000E+00 1.70943015E-01
27  2 5.24631323E-01 0.00000000E+00 0.00000000E+00-7.15804920E-01-8.20914737E-01
27  3 0.00000000E+00 0.00000000E+00 9.89819071E-01-4.35206797E-02-4.35206797E-02
27  4 2.77687637E-01 0.00000000E+00 0.00000000E+00 0.00000000E+00-2.40296749E-02
27  5 9.96735896E-03 0.00000000E+00 0.00000000E+00 1.70943015E-01-5.24631323E-01
27  6 0.00000000E+00 0.00000000E+00-7.15804920E-01 8.20914737E-01 0.00000000E+00
27  7 0.00000000E+00 9.89819071E-01 4.35206797E-02 4.35206797E-02-2.77687637E-01
27  8 0.00000000E+00 0.00000000E+00 0.00000000E+00 0.00000000E+00 0.00000000E+00
27  9 0.00000000E+00 0.00000000E+00 1.51216511E-01
28  1-1.27175415E-02 2.36655889E-02 0.00000000E+00 0.00000000E+00-9.10054502E-02
28  2-2.66681370E-01 0.00000000E+00 0.00000000E+00 3.53130141E-01 2.74670373E-01
28  3 0.00000000E+00 0.00000000E+00-3.81121967E-01-3.02226239E-01-3.02226239E-01
28  4 6.16350340E-01 0.00000000E+00 0.00000000E+00 0.00000000E+00 1.27175415E-02
28  5-2.36655889E-02 0.00000000E+00 0.00000000E+00-9.10054502E-02 2.66681370E-01
28  6 0.00000000E+00 0.00000000E+00 3.53130141E-01-2.74670373E-01 0.00000000E+00
28  7 0.00000000E+00-3.81121967E-01 3.02226239E-01 3.02226239E-01-6.16350340E-01
28  8 0.00000000E+00 0.00000000E+00 0.00000000E+00 0.00000000E+00 0.00000000E+00
28  9 0.00000000E+00 0.00000000E+00 2.15261521E-01
29  1 0.00000000E+00 0.00000000E+00 6.02093465E-03 0.00000000E+00 0.00000000E+00
29  2 0.00000000E+00-2.82997109E-02 0.00000000E+00 0.00000000E+00 0.00000000E+00
29  3 4.72684874E-02 0.00000000E+00 0.00000000E+00 0.00000000E+00 0.00000000E+00
29  4 0.00000000E+00 0.00000000E+00 6.96543539E-01 0.00000000E+00 0.00000000E+00
29  5 0.00000000E+00 6.02093465E-03 0.00000000E+00 0.00000000E+00 0.00000000E+00
29  6-2.82997109E-02 0.00000000E+00 0.00000000E+00 0.00000000E+00 4.72684874E-02
29  7 0.00000000E+00 0.00000000E+00 0.00000000E+00 0.00000000E+00 0.00000000E+00
29  8 0.00000000E+00-6.96543539E-01 0.00000000E+00 0.00000000E+00 0.00000000E+00
29  9-1.28133599E-01 0.00000000E+00 0.00000000E+00
30  1 0.00000000E+00 0.00000000E+00 0.00000000E+00 6.02093465E-03 0.00000000E+00
30  2 0.00000000E+00 0.00000000E+00-2.82997109E-02 0.00000000E+00 0.00000000E+00
30  3 0.00000000E+00 4.72684874E-02 0.00000000E+00 0.00000000E+00 0.00000000E+00
30  4 0.00000000E+00 0.00000000E+00 0.00000000E+00 6.96543539E-01 0.00000000E+00
30  5 0.00000000E+00 0.00000000E+00 6.02093465E-03 0.00000000E+00 0.00000000E+00
30  6 0.00000000E+00-2.82997109E-02 0.00000000E+00 0.00000000E+00 0.00000000E+00
30  7 4.72684874E-02 0.00000000E+00 0.00000000E+00 0.00000000E+00 0.00000000E+00
30  8 0.00000000E+00 0.00000000E+00-6.96543539E-01 0.00000000E+00 0.00000000E+00
30  9 0.00000000E+00-1.28133599E-01 0.00000000E+00
31  1 0.00000000E+00 0.00000000E+00 0.00000000E+00-9.52012242E-03 0.00000000E+00
31  2 0.00000000E+00 0.00000000E+00 3.71226507E-02 0.00000000E+00 0.00000000E+00
31  3 0.00000000E+00-3.85715550E-02 0.00000000E+00 0.00000000E+00 0.00000000E+00
31  4 0.00000000E+00 0.00000000E+00 0.00000000E+00 7.06713568E-01 0.00000000E+00
31  5 0.00000000E+00 0.00000000E+00 9.52012242E-03 0.00000000E+00 0.00000000E+00
31  6 0.00000000E+00-3.71226507E-02 0.00000000E+00 0.00000000E+00 0.00000000E+00
31  7 3.85715550E-02 0.00000000E+00 0.00000000E+00 0.00000000E+00 0.00000000E+00
31  8 0.00000000E+00 0.00000000E+00 7.06713568E-01 0.00000000E+00 0.00000000E+00
31  9 0.00000000E+00 0.00000000E+00 0.00000000E+00
32  1 0.00000000E+00 0.00000000E+00-9.52012242E-03 0.00000000E+00 0.00000000E+00
32  2 0.00000000E+00 3.71226507E-02 0.00000000E+00 0.00000000E+00 0.00000000E+00
32  3-3.85715550E-02 0.00000000E+00 0.00000000E+00 0.00000000E+00 0.00000000E+00
32  4 0.00000000E+00 0.00000000E+00 7.06713568E-01 0.00000000E+00 0.00000000E+00
32  5 0.00000000E+00 9.52012242E-03 0.00000000E+00 0.00000000E+00 0.00000000E+00
32  6-3.71226507E-02 0.00000000E+00 0.00000000E+00 0.00000000E+00 3.85715550E-02
32  7 0.00000000E+00 0.00000000E+00 0.00000000E+00 0.00000000E+00 0.00000000E+00
32  8 0.00000000E+00 7.06713568E-01 0.00000000E+00 0.00000000E+00 0.00000000E+00
32  9 0.00000000E+00 0.00000000E+00 0.00000000E+00
33  1 0.00000000E+00 0.00000000E+00 0.00000000E+00 0.00000000E+00 0.00000000E+00
33  2 0.00000000E+00 0.00000000E+00 0.00000000E+00 0.00000000E+00 0.00000000E+00
33  3 0.00000000E+00 0.00000000E+00 0.00000000E+00 6.12372535E-01-6.12372535E-01
33  4 0.00000000E+00 0.00000000E+00 0.00000000E+00 0.00000000E+00 0.00000000E+00
33  5 0.00000000E+00 0.00000000E+00 0.00000000E+00 0.00000000E+00 0.00000000E+00
33  6 0.00000000E+00 0.00000000E+00 0.00000000E+00 0.00000000E+00 0.00000000E+00
33  7 0.00000000E+00 0.00000000E+00-6.12372535E-01 6.12372535E-01 0.00000000E+00
33  8 0.00000000E+00 0.00000000E+00 0.00000000E+00 0.00000000E+00 0.00000000E+00
33  9 0.00000000E+00 0.00000000E+00 0.00000000E+00
34  1 0.00000000E+00 0.00000000E+00 0.00000000E+00 0.00000000E+00 0.00000000E+00
34  2 0.00000000E+00 0.00000000E+00 0.00000000E+00 0.00000000E+00 0.00000000E+00
34  3 0.00000000E+00 0.00000000E+00 0.00000000E+00 0.00000000E+00 0.00000000E+00
34  4 0.00000000E+00 7.07106896E-01 0.00000000E+00 0.00000000E+00 0.00000000E+00
34  5 0.00000000E+00 0.00000000E+00 0.00000000E+00 0.00000000E+00 0.00000000E+00
34  6 0.00000000E+00 0.00000000E+00 0.00000000E+00 0.00000000E+00 0.00000000E+00
34  7 0.00000000E+00 0.00000000E+00 0.00000000E+00 0.00000000E+00 0.00000000E+00
34  8-7.07106896E-01 0.00000000E+00 0.00000000E+00 0.00000000E+00 0.00000000E+00
34  9 0.00000000E+00 0.00000000E+00 0.00000000E+00
35  1 0.00000000E+00 0.00000000E+00 0.00000000E+00 0.00000000E+00 0.00000000E+00
35  2 0.00000000E+00 0.00000000E+00 0.00000000E+00 0.00000000E+00 0.00000000E+00
35  3 0.00000000E+00 0.00000000E+00 0.00000000E+00 6.12372336E-01-6.12372336E-01
35  4 0.00000000E+00 0.00000000E+00 0.00000000E+00 0.00000000E+00 0.00000000E+00
35  5 0.00000000E+00 0.00000000E+00 0.00000000E+00 0.00000000E+00 0.00000000E+00
35  6 0.00000000E+00 0.00000000E+00 0.00000000E+00 0.00000000E+00 0.00000000E+00
35  7 0.00000000E+00 0.00000000E+00 6.12372336E-01-6.12372336E-01 0.00000000E+00
35  8 0.00000000E+00 0.00000000E+00 0.00000000E+00 0.00000000E+00 0.00000000E+00
35  9 0.00000000E+00 0.00000000E+00 0.00000000E+00
36  1 0.00000000E+00 0.00000000E+00 0.00000000E+00 0.00000000E+00 0.00000000E+00
36  2 0.00000000E+00 0.00000000E+00 0.00000000E+00 0.00000000E+00 0.00000000E+00
36  3 0.00000000E+00 0.00000000E+00 0.00000000E+00 0.00000000E+00 0.00000000E+00
36  4 0.00000000E+00 7.07106666E-01 0.00000000E+00 0.00000000E+00 0.00000000E+00
36  5 0.00000000E+00 0.00000000E+00 0.00000000E+00 0.00000000E+00 0.00000000E+00
36  6 0.00000000E+00 0.00000000E+00 0.00000000E+00 0.00000000E+00 0.00000000E+00
36  7 0.00000000E+00 0.00000000E+00 0.00000000E+00 0.00000000E+00 0.00000000E+00
36  8 7.07106666E-01 0.00000000E+00 0.00000000E+00 0.00000000E+00 0.00000000E+00
36  9 0.00000000E+00 0.00000000E+00 0.00000000E+00
37  1 7.11638892E-03 1.59456756E-02 0.00000000E+00 0.00000000E+00-3.80510024E-03
37  2 2.25010713E-01 0.00000000E+00 0.00000000E+00 4.31311770E-02-9.11199869E-01
37  3 0.00000000E+00 0.00000000E+00 5.10269504E-01-1.04997748E-01-1.04997748E-01
37  4 2.33042835E-01 0.00000000E+00 0.00000000E+00 0.00000000E+00 7.11638892E-03
37  5 1.59456756E-02 0.00000000E+00 0.00000000E+00 3.80510024E-03 2.25010713E-01
37  6 0.00000000E+00 0.00000000E+00-4.31311770E-02-9.11199869E-01 0.00000000E+00
37  7 0.00000000E+00-5.10269504E-01-1.04997748E-01-1.04997748E-01 2.33042835E-01
37  8 0.00000000E+00 0.00000000E+00 0.00000000E+00-1.34823419E+00 2.35976456E+00
37  9 0.00000000E+00 0.00000000E+00 0.00000000E+00
38  1 1.48910723E-02 3.12111229E-02 0.00000000E+00 0.00000000E+00 1.37634305E-02
38  2 4.69425903E-01 0.00000000E+00 0.00000000E+00-8.94331958E-02-1.40697174E+00
38  3 0.00000000E+00 0.00000000E+00 9.85822359E-01 3.77997207E-01 3.77997207E-01
38  4-6.81091845E-01 0.00000000E+00 0.00000000E+00 0.00000000E+00 1.48910723E-02
38  5 3.12111229E-02 0.00000000E+00 0.00000000E+00-1.37634305E-02 4.69425903E-01
38  6 0.00000000E+00 0.00000000E+00 8.94331958E-02-1.40697174E+00 0.00000000E+00
38  7 0.00000000E+00-9.85822359E-01 3.77997207E-01 3.77997207E-01-6.81091845E-01
38  8 0.00000000E+00 0.00000000E+00 0.00000000E+00-4.80972077E-01 2.68615555E+00
38  9 0.00000000E+00 0.00000000E+00 0.00000000E+00
39  1 0.00000000E+00 0.00000000E+00-8.25192673E-03 0.00000000E+00 0.00000000E+00
39  2 0.00000000E+00 5.31074786E-02 0.00000000E+00 0.00000000E+00 0.00000000E+00
39  3-1.28346926E-01 0.00000000E+00 0.00000000E+00 0.00000000E+00 0.00000000E+00
39  4 0.00000000E+00 0.00000000E+00 1.25907920E-01 0.00000000E+00 0.00000000E+00
39  5 0.00000000E+00-8.25192673E-03 0.00000000E+00 0.00000000E+00 0.00000000E+00
39  6 5.31074786E-02 0.00000000E+00 0.00000000E+00 0.00000000E+00-1.28346926E-01
39  7 0.00000000E+00 0.00000000E+00 0.00000000E+00 0.00000000E+00 0.00000000E+00
39  8 0.00000000E+00-1.25907920E-01 0.00000000E+00 0.00000000E+00 0.00000000E+00
39  9 1.00231171E+00 0.00000000E+00 0.00000000E+00
40  1 0.00000000E+00 0.00000000E+00 0.00000000E+00-8.25192673E-03 0.00000000E+00
40  2 0.00000000E+00 0.00000000E+00 5.31074786E-02 0.00000000E+00 0.00000000E+00
40  3 0.00000000E+00-1.28346926E-01 0.00000000E+00 0.00000000E+00 0.00000000E+00
40  4 0.00000000E+00 0.00000000E+00 0.00000000E+00 1.25907920E-01 0.00000000E+00
40  5 0.00000000E+00 0.00000000E+00-8.25192673E-03 0.00000000E+00 0.00000000E+00
40  6 0.00000000E+00 5.31074786E-02 0.00000000E+00 0.00000000E+00 0.00000000E+00
40  7-1.28346926E-01 0.00000000E+00 0.00000000E+00 0.00000000E+00 0.00000000E+00
40  8 0.00000000E+00 0.00000000E+00-1.25907920E-01 0.00000000E+00 0.00000000E+00
40  9 0.00000000E+00 1.00231171E+00 0.00000000E+00
41  1-1.20193883E-02 7.95409488E-02 0.00000000E+00 0.00000000E+00-4.39096354E-02
41  2-2.59066388E-01 0.00000000E+00 0.00000000E+00 1.02766635E-01-2.30251579E-01
41  3 0.00000000E+00 0.00000000E+00 1.74281481E-01 3.10611920E-01 3.10611920E-01
41  4-1.82471977E-01 0.00000000E+00 0.00000000E+00 0.00000000E+00 1.20193883E-02
41  5-7.95409488E-02 0.00000000E+00 0.00000000E+00-4.39096354E-02 2.59066388E-01
41  6 0.00000000E+00 0.00000000E+00 1.02766635E-01 2.30251579E-01 0.00000000E+00
41  7 0.00000000E+00 1.74281481E-01-3.10611920E-01-3.10611920E-01 1.82471977E-01
41  8 0.00000000E+00 0.00000000E+00 0.00000000E+00 0.00000000E+00 0.00000000E+00
41  9 0.00000000E+00 0.00000000E+00 1.04978856E+00
42  1 1.20602441E-01-5.73352665E-01 0.00000000E+00 0.00000000E+00 5.00999597E-04
42  2 3.89423622E+00 0.00000000E+00 0.00000000E+00 3.68149039E-03 1.91395948E-01