!
! C1 NEO calculation of methane with all 4 hydrogen
! nuclei treated high spin QM. 
! (Note that if run with Td point group symmetry this
! job crashes - this known bug is being investigated)
!
! FINAL ENERGY IS      -39.5571307715 AFTER   7 ITERATIONS
!
 $CONTRL SCFTYP=RHF RUNTYP=ENERGY $END
 $SYSTEM TIMLIM=50 MEMORY=6000000 $END
 $SCF    SOSCF=.F. DIIS=.T. ETHRSH=1.5 
         DIRSCF=.f. FDIFF=.f. $END
 $NEO    NEOSCF=RONHF BASNUC=DZSNB NUNIQN=4
         IUNIQN(1)=2,3,4,5 NUMULT=5 
         DIRNUC=.f. SYMNUC=.t. $END
 $BASIS  GBASIS=STO NGAUSS=3 $END
 $GUESS  GUESS=MOREAD NORB=9 $END
 $DATA
  -------- METHANE --------
 C1
 C           6.0    .0000000000    .0000000000    .0000000000
 H           1.0    .6252761015   -.6252761015   -.6252761015
 H           1.0   -.6252761015    .6252761015   -.6252761015
 H           1.0   -.6252761015   -.6252761015    .6252761015
 H           1.0    .6252761015    .6252761015    .6252761015
 $END
--- RHF ORBITALS --- GENERATED AT Fri Aug 15 10:09:02 2003
  -------- METHANE --------                                                     
E(RHF)=      -39.7268636774, E(NUC)=   13.5221056731,    6 ITERS
 $VEC
 1  1 9.91925485E-01 3.83556394E-02 0.00000000E+00 0.00000000E+00 0.00000000E+00
 1  2-7.00709594E-03-7.00709594E-03-7.00709594E-03-7.00709594E-03
 2  1-2.21430844E-01 6.27586636E-01 0.00000000E+00 0.00000000E+00 0.00000000E+00
 2  2 1.80567160E-01 1.80567160E-01 1.80567160E-01 1.80567160E-01
 3  1 0.00000000E+00 0.00000000E+00-1.18797162E-03-9.70193690E-03 5.71882336E-01
 3  2-2.96298198E-01-3.05253875E-01 3.06503479E-01 2.95048593E-01
 4  1 0.00000000E+00 0.00000000E+00 5.65386656E-01-8.65031129E-02-2.93040078E-04
 4  2 3.43009301E-01-3.42701058E-01-2.52018334E-01 2.51710090E-01
 5  1 0.00000000E+00 0.00000000E+00 8.64954516E-02 5.65303484E-01 9.77000429E-03
 5  2-2.56962938E-01 2.46686058E-01-3.37668966E-01 3.47945846E-01
 6  1 0.00000000E+00 0.00000000E+00 2.74181903E-01 1.03778944E+00 2.68040494E-01
 6  2 5.73310415E-01-2.75397944E-01 5.80136257E-01-8.78048729E-01
 7  1 0.00000000E+00 0.00000000E+00 1.05157724E+00-3.14000075E-01 1.40062836E-01
 7  2-6.81046437E-01 8.36718683E-01 3.32052386E-01-4.87724631E-01
 8  1 0.00000000E+00 0.00000000E+00-2.07455848E-01-2.20057664E-01 1.06422039E+00
 8  2 5.84408503E-01 5.98414738E-01-8.28990661E-01-3.53832579E-01
 9  1-2.52319043E-01 1.63281913E+00 0.00000000E+00 0.00000000E+00 0.00000000E+00
 9  2-6.67723473E-01-6.67723473E-01-6.67723473E-01-6.67723473E-01
 $END
