!   CC-SD(T) computation on catnip...C10 O2 H14
!   there are 26 atoms and 45 occupied MOs (12 are core)
!   the spherical harmonic form of 6-31G(d) has 208 AOs and 196 MOs.
!
!   GAMESS' FORTRAN: FINAL= -536.5610228890, 13 iters, CCSD(T)= -538.3271763749
!   GAMESS+LIBCCHEM: FINAL= -536.5610228905, 13 iters, CCSD(T)= -538.3271763783
!
!   this run took 4003 wall seconds on one   node  w/6 cores and w/1 Fermi GPUs
!   this run took 1851 wall seconds on three nodes w/6 cores and w/2 Fermi GPUs
!   The distributed memory should fit in a single node with 24 GBytes.
!
!     full results from GAMESS' FORTRAN:
!         RHF     ENERGY: -536.5610228890, 13 iters,
!         MBPT(2) ENERGY: -538.1788395834
!        CC-SD    ENERGY: -538.2672470062, 21 iters, T1= 0.01220150
!        CC-SD[T] ENERGY: -538.3305217599
!        CC-SD(T) ENERGY: -538.3271763749
!     full results from GAMESS+LIBCCHEM:
!         E(RHF)     =     -536.5610228905, 13 iters
!         E(MP2)     =     -538.1788395852
!        E(CC-SD)    =     -538.2672470107, 16 iters
!        E(CC-SD[T]) =     -538.3305217628
!        E(CC-SD(T)) =     -538.3271763783
!
 $contrl scftyp=rhf cctyp=ccsd(t) runtyp=energy nzvar=72 ispher=1 $end
 $system mwords=50 memddi=2000 $end

 $basis  gbasis=n31 ngauss=6 ndfunc=1 $end
 $guess  guess=huckel $end
 $zmat   dlc=.t. auto=.t. $end
 $scf    dirscf=.true. $end
 $data
catnip...RHF/6-31G* structure of correct stereochemistry
C1
C   6.0  -0.6138320650  -0.3109749649   0.7109401155
H   1.0  -1.5703496666  -0.5652480673   1.1211148063
O   8.0  -0.6498824543  -0.4152344023  -0.6544969777
C   6.0   0.4344253454   0.0305401795   1.4272907442
C   6.0   0.3649992010   0.0897958386   2.9301209993
H   1.0  -0.6251006582  -0.1599673653   3.2938474594
H   1.0   1.0700918950  -0.6017485658   3.3824667677
H   1.0   0.6141357857   1.0848055857   3.2896948295
C   6.0   0.4100373163  -0.1338937881  -1.4224545764
O   8.0   0.3563235095  -0.3794782542  -2.5788950634
C   6.0   1.7288536010   0.3918271981   0.7543185190
H   1.0   2.0532292282   1.3510093472   1.1526844221
C   6.0   1.6066184498   0.5434096388  -0.7817399074
H   1.0   1.4724847821   1.5931668669  -1.0297616876
C   6.0   2.8957230834  -0.5931944674   0.9505917688
H   1.0   3.3377025340  -0.5290105910   1.9387592862
H   1.0   2.5509782364  -1.6148724699   0.8083578337
C   6.0   2.9416781895   0.0180489608  -1.3877354026
H   1.0   2.7452912255  -0.9507946118  -1.8335644443
C   6.0   3.5266448766   0.9204402189  -2.4692123365
H   1.0   4.4614683564   0.5151580282  -2.8452169986
H   1.0   2.8413216634   1.0127414076  -3.3037993474
H   1.0   3.7294624060   1.9157154773  -2.0809764324
C   6.0   3.8550433295  -0.1953367439  -0.1702611164
H   1.0   4.3602789523   0.7323648499   0.0915316667
H   1.0   4.6223403561  -0.9379063067  -0.3616535727
 $end
