!   CC-SD(T) computation on H2-assisted hydrogen migration N2H4-->H3NNH
!   there are 4 atoms and 10 occupied MOs (2 are core).
!   the aug-cc-pVTZ basis has 260 AOs and 230 MOs.
!
!   GAMESS' FORTRAN: FINAL= -112.2505895086, 12 its, CCSD(T)= -112.8025001422
!   GAMESS+LIBCCHEM: FINAL= -112.2505895083, 13 its, CCSD(T)= -112.8025001423
!
!   this run took 2538 wall seconds on one node  w/8 cores and w/2 Tesla GPUs
!   this run took  739 wall seconds on two nodes w/6 cores and w/2 Fermi GPUs
!
!     full results from GAMESS' FORTRAN:
!         REFERENCE ENERGY:     -112.2505895086, 12 iters
!           MBPT(2) ENERGY:     -112.7621670737
!          CC-SD    ENERGY:     -112.7800759603, 20 iters
!          CC-SD[T] ENERGY:     -112.8031021401
!          CC-SD(T) ENERGY:     -112.8025001422
!     full results from GAMESS+LIBCCHEM:  (Tesla board)
!             E(RHF)      =     -112.2505895083, 12 iters
!             E(MP2)      =     -112.7621671049
!             E(CC-SD)    =     -112.7800759592, 16 iters
!             E(CC-SD[T]) =     -112.8031021400
!             E(CC-SD(T)) =     -112.8025001423
!
 $contrl scftyp=rhf cctyp=ccsd(t) runtyp=energy ispher=1 $end
 $system mwords=20 memddi=150 $end
 $basis  gbasis=acct $end
 $guess  guess=huckel $end
 $scf    dirscf=.true. $end
 $data
H2-assisted hydrogen migration: N2H4 to H3NNH...at MP2/ACCD saddle point
C1
N   7.0  -0.7209387045  -0.2006529708   0.0478728053
N   7.0   0.7008689704  -0.0594386267  -0.0738687515
H   1.0  -1.0392919553   0.8839313774  -0.1424821927
H   1.0   1.0521458506  -0.0704669806   0.8920539333
H   1.0  -0.2646863636   1.9442617938  -0.3373794783
H   1.0   0.4680040865   1.2840672902  -0.2760101301
H   1.0  -1.0733458319  -0.8216790679  -0.6809116647
H   1.0  -1.0639699405  -0.5200101929   0.9559262237
 $end
