!   CC-SD(T) computation on H2CO...formaldehyde
!   there are 4 atoms and 8 occupied MOs (4 are core)
!   the cc-pVTZ basis has 208 AOs and 196 MOs.
!
!   GAMESS' FORTRAN: FINAL= -113.9108006987, 12 iters, CCSD(T)= -114.3336903108
!   GAMESS+LIBCCHEM: FINAL= -113.9108006987, 12 iters, CCSD(T)= -114.3336903151
!
!   this run took 51 wall seconds on one node w/6 cores and w/1 GPU
!
!   GAMESS' FORTRAN full results
!     REFERENCE ENERGY:     -113.9108006987, 12 iters
!       MBPT(2) ENERGY:     -114.3069217412
!      CC-SD    ENERGY:     -114.3169914353, 17 iters
!      CC-SD[T] ENERGY:     -114.3347603627
!      CC-SD(T) ENERGY:     -114.3336903108
!   GAMESS+LIBCCHEM full results
!          E(RHF)     =     -113.9108006987, 12 iters
!          E(MP2)     =     -114.3069217412
!         E(CC-SD)    =     -114.3169914376, 13 iters
!         E(CC-SD[T]) =     -114.3347603681
!         E(CC-SD(T)) =     -114.3336903151
!
 $contrl scftyp=rhf cctyp=ccsd(t) runtyp=energy ispher=1 $end
 $system mwords=8 memddi=8 $end
 $basis  gbasis=cct $end
 $scf    dirscf=.true. $end
 $data
COH2 cc-pVTZ, R(CO) = equilibrium value
Cnv  2     

Oxygen         8.       0.00000000    0.00000000     0.0000000 
Carbon         6.       0.00000000    0.00000000    -1.208 
Hydrogen       1.       0.00000000    0.94848024537 -1.79608266777 
 $end
