!   MP2 computation on ketamine...C13 N O Cl H16...animal anesthetic.
!   there are 32 atoms and 63 occupied MOs (20 are core)
!   the cartesian 6-31G(d) basis has 276 AOs and MOs
!
!   GAMESS' FORTRAN: FINAL= -1090.3548613170, 15 its, E(MP2)= -1092.5226413653
!   GAMESS+LIBCCHEM: FINAL= -1090.3548613203, 15 its, E(MP2)= -1092.5226413689
!
!   this run took 62 seconds on one node w/6 cores and w/2 Fermi GPUs
!
!   note that this input may easily be turned into a CCSD(T) run below.
!
 $contrl scftyp=rhf mplevl=2 runtyp=energy ispher=0 $end
 $system mwords=5 memddi=100 $end
 $basis  gbasis=n31 ngauss=6 ndfunc=1 $END
 $scf    dirscf=.true. $end

!    as a CCSD(T) run, LIBCCHEM takes 7,429 sec on 4 'exalted' nodes
!         SCF=  -1090.3548613203,     MP2= -1092.5226413569,
!         CCSD= -1092.6215914025, CCSD(T)= -1092.7135454258
--- $contrl mplevl=0 cctyp=ccsd(t) $end
--- $system mwords=10 memddi=1150 $end

!   structure obtained by drawing from Wikipedia with Avogadro
 $data
ketamine...AM1 optimized geometry...positive definite
C1
C    6.0  -3.9118886915   0.9281432841  -0.1614390386
C    6.0  -3.7410183670  -0.5409975867  -0.4855769802
C    6.0  -2.9144539729   1.7772788234  -0.9174968541
C    6.0  -1.4378801684   1.4260868859  -0.5419965043
C    6.0  -2.3125811068  -0.9887375130  -0.2515673902
C    6.0  -1.3480142446  -0.0667939663  -0.9463086120
O    8.0  -0.6147115759  -0.4503692709  -1.8619793490
H    1.0  -3.7873762873   1.0897320776   0.9421580648
H    1.0  -4.9504672080   1.2521705383  -0.4347352731
H    1.0  -4.0213576792  -0.7262108992  -1.5560370244
H    1.0  -4.4293270970  -1.1535302741   0.1527940621
H    1.0  -3.0458771431   1.6001973564  -2.0195783087
H    1.0  -3.1135887666   2.8638240588  -0.7395844183
C    6.0  -1.1893548992   1.6218627422   0.9464182500
N    7.0  -0.5544771337   2.3121980944  -1.3171202429
H    1.0  -2.0882436636  -0.9831122607   0.8481100056
H    1.0  -2.1710164463  -2.0356733847  -0.6282843155
C    6.0   0.8556842716   2.1990656965  -1.0510675478
H    1.0  -0.7270758595   2.1394499799  -2.2934500067
H    1.0   1.2772192591   1.1804345921  -1.2740141548
H    1.0   1.0564125998   2.4393505778   0.0258665891
H    1.0   1.3840604314   2.9543782728  -1.6917294700
C    6.0  -1.8383280596   2.6860552963   1.5936970930
C    6.0  -0.3063183666   0.8425690947   1.7139699662
C    6.0  -0.1428238632   1.0760813876   3.0866200843
C    6.0  -0.8297677467   2.1122091300   3.7095867364
C    6.0  -1.6708577961   2.9273170879   2.9543514901
H    1.0  -2.4871226825   3.3643353973   1.0184539358
CL  17.0   0.6473840734  -0.4050901895   1.0509893304
H    1.0   0.5418649637   0.4415304682   3.6710460272
H    1.0  -0.6989040900   2.2912897218   4.7868003776
H    1.0  -2.1996297960   3.7667734745   3.4298744421
 $END
