!   MP2 computation on digitoxin...C41O13H64...heart medication
!   there are 118 atoms, and 153 occupied MOs (54 are core)
!   the cartesian 6-31G(d) basis has 938 AOs and MOs.
!
!   GAMESS' FORTRAN: FINAL= -2562.9435412715, 14 its, E(MP2)= -2570.6714148782
!   GAMESS+LIBCCHEM: FINAL= -2562.9435412950, 14 its, E(MP2)= -2570.6714149042
!
!   this run took 1591 seconds on five nodes w/6 cores and 2/4 GPUs
!   this run requires five nodes with 24 GBytes to aggregate the
!            necessary amount of distributed memory.
!
 $contrl scftyp=rhf mplevl=2 runtyp=energy ispher=0 $end
 $system mwords=50 memddi=10700 $end
 $basis  gbasis=n31 ngauss=6 ndfunc=1 $end
 $scf    dirscf=.true. $end
 $data
digitoxin...AM1 optimized structure
C1
C  6.0  -1.0121871862  -0.9917547757   0.4232579410
C  6.0   0.3885237618  -0.7391271431  -0.0829706822
C  6.0   1.1292994427  -2.0654157253  -0.2121676018
C  6.0   0.3954634454  -2.9791646173  -1.1844023714
O  8.0   2.4305062348  -1.7485709084  -0.7202126235
C  6.0  -2.5923364063  -4.7339678594   0.4332807200
C  6.0  -3.6333524166  -3.6872925135   0.0400606295
C  6.0  -3.1327852879  -2.2713322028   0.3052507771
C  6.0  -1.8327729100  -1.9296783234  -0.4716611308
C  6.0  -1.0541922942  -3.2184165838  -0.7974733624
C  6.0  -1.1747481962  -4.2110594654   0.3440787577
C  6.0  -2.1323774087  -1.2301117211  -1.7929194063
C  6.0  -4.2307176464  -1.2616725839   0.0096256268
C  6.0  -4.9837352272  -4.0100361421   0.7142656732
C  6.0  -5.4629162604  -1.5333364874   0.8366644096
C  6.0  -6.0746852522  -2.9088664306   0.5612007827
C  6.0  -6.2802888599  -3.9126449787   2.8054068976
C  6.0  -7.0808300912  -3.1853674454   1.7148813617
C  6.0  -4.9095526561  -4.2465487909   2.2359073134
C  6.0  -8.2811713497  -3.9455696874   1.3144986105
C  6.0  -8.4159490623  -5.2246717898   0.8950880081
O  8.0 -10.5837439788  -4.3307945418   0.9541130654
C  6.0  -9.6537230971  -3.3029444690   1.3716946475
C  6.0  -9.8564992292  -5.4888248454   0.6629948800
O  8.0 -10.5055990278  -6.4568753088   0.2931616745
C  6.0  -6.7293145838  -2.9374884717  -0.8019557890
O  8.0  -5.5064145800  -5.1843640820   0.0819720946
H  1.0  -4.8553643532  -5.8842290029   0.2125307510
C  6.0   3.4260399601  -2.7239726211  -0.4448112218
C  6.0   4.6481171169  -2.3908941613  -1.2937550244
C  6.0   5.5070772565  -1.2780704631  -0.7060379219
C  6.0   4.7897212269  -0.5886589044   0.4667356686
C  6.0   4.3533024331  -1.6209915879   1.5165693268
O  8.0   3.6303011637  -2.7184656240   0.9472697050
O  8.0   6.7356146843  -1.8687220521  -0.3055503406
O  8.0   5.7350697814   0.2782553590   1.1040164318
H  1.0   7.1639013711  -1.2531892017   0.3039683679
C  6.0   3.4717837562  -0.9865072012   2.5750108544
C  6.0   5.5506333292   1.6624789746   0.9264815915
C  6.0   5.5957569828   2.1390004448  -0.5218183894
C  6.0   5.2244666152   3.6131663625  -0.6011582152
C  6.0   3.9041952822   3.8790455798   0.1457654046
C  6.0   3.9386126721   3.2859009299   1.5689225612
O  8.0   4.2709934163   1.8974627692   1.5085334880
O  8.0   6.2891509267   4.3567188888  -0.0317294856
O  8.0   3.7245712443   5.2875119344   0.3301041581
H  1.0   6.0100581765   5.2847328323  -0.0463931499
C  6.0   2.5846860422   3.3726289636   2.2432729272
C  6.0   3.2664113908   5.9830615123  -0.8113181413
C  6.0   2.6301862162   7.2860937883  -0.3317033909
C  6.0   2.4509946505   8.2495132835  -1.4963942632
C  6.0   3.7815572024   8.4074662781  -2.2568832727
C  6.0   4.3322853623   7.0312142345  -2.6687394094
O  8.0   4.4905136519   6.2031818718  -1.5150743622
O  8.0   1.4395896962   7.7181112967  -2.3382548671
O  8.0   3.4808589995   9.1976859189  -3.3966746462
H  1.0   1.3948784913   8.2915150379  -3.1153661475
H  1.0   4.3051493085   9.3153770923  -3.8839450111
C  6.0   5.7027108858   7.1318171355  -3.3087042032
H  1.0  -1.5558651251  -0.0146103794   0.5137796793
H  1.0  -0.9407853513  -1.4331739554   1.4540150818
H  1.0   0.3670432684  -0.2237492423  -1.0774874894
H  1.0   0.9404060730  -0.0727449657   0.6300401754
H  1.0   1.2266730345  -2.5577410560   0.7955510907
H  1.0   0.4387905307  -2.5201655476  -2.2076947305
H  1.0   0.9276967526  -3.9649698349  -1.2429880355
H  1.0  -2.7662481813  -5.1024665860   1.4773013537
H  1.0  -2.7056979556  -5.6180635867  -0.2499315354
H  1.0  -3.8169807698  -3.7735383699  -1.0715309864
H  1.0  -2.8988719149  -2.2106682608   1.4083219903
H  1.0  -1.5491974219  -3.6868644552  -1.7002651814
H  1.0  -0.4706607901  -5.0694703924   0.1864226490
H  1.0  -0.8828568495  -3.7153065260   1.3070074855
H  1.0  -1.1943522592  -1.1206937043  -2.3903523387
H  1.0  -2.8611663530  -1.8268530642  -2.3930607308
H  1.0  -2.5507169078  -0.2093278108  -1.6228016684
H  1.0  -3.8538890895  -0.2296096904   0.2387600286
H  1.0  -4.5072164071  -1.2893781562  -1.0771949455
H  1.0  -5.1985577887  -1.4621438837   1.9262881502
H  1.0  -6.2343480225  -0.7472743375   0.6220124336
H  1.0  -6.1805294131  -3.2568409101   3.7061084450
H  1.0  -6.8079676304  -4.8468873177   3.1233751816
H  1.0  -7.4364942819  -2.1945566906   2.1204200639
H  1.0  -4.6435208483  -5.3093803421   2.4600580974
H  1.0  -4.1243423839  -3.5866564702   2.6818197432
H  1.0  -7.6416698706  -5.9711446145   0.7099317427
H  1.0  -9.7530099309  -2.4516511829   0.6533810403
H  1.0  -9.9425672879  -2.9945248153   2.4065271084
H  1.0  -7.1660947465  -3.9466649303  -1.0050546220
H  1.0  -7.5423210281  -2.1737643462  -0.8554314174
H  1.0  -5.9754904812  -2.7216908680  -1.5969691984
H  1.0   3.0483618098  -3.7661211421  -0.6599092416
H  1.0   5.2711495552  -3.3200243500  -1.3858797577
H  1.0   4.2996817908  -2.0922211286  -2.3151563754
H  1.0   5.7351968620  -0.5030523233  -1.4935102362
H  1.0   3.8920865467  -0.0270092208   0.0921305593
H  1.0   5.2726260164  -2.0786362425   1.9823120901
H  1.0   3.9531282288  -0.0444013828   2.9349935793
H  1.0   2.4707943370  -0.7424265380   2.1434494385
H  1.0   3.3312069401  -1.6892683323   3.4290873584
H  1.0   6.3671022267   2.1408295291   1.5421135808
H  1.0   6.6297381337   1.9870716820  -0.9229812367
H  1.0   4.8759648103   1.5523346224  -1.1474986410
H  1.0   5.0990990656   3.9237359259  -1.6784425166
H  1.0   3.0473904276   3.4442803172  -0.4352137040
H  1.0   4.7231171284   3.8322344193   2.1646348897
H  1.0   2.6542160172   2.9847244202   3.2871296502
H  1.0   2.2588019994   4.4399365071   2.2615303346
H  1.0   1.8311269102   2.7643318645   1.6887304068
H  1.0   2.5600608255   5.3814878755  -1.4471630921
H  1.0   1.6350276289   7.0547968190   0.1253492278
H  1.0   3.2824318335   7.7605116903   0.4448614167
H  1.0   2.1244490560   9.2591403449  -1.1189470738
H  1.0   4.5265377519   8.9371932363  -1.6023049034
H  1.0   3.5966252314   6.5464349910  -3.3721213225
H  1.0   6.1371209034   6.1108458453  -3.4355468597
H  1.0   5.6127972951   7.6159483857  -4.3099669727
H  1.0   6.3935484258   7.7301011622  -2.6683140727
 $end
