!   MP2 computation on absinthin...C30 O6 H40...orange crystals from wormwood
!   there are 76 atoms, and 134 occupied MOs (36 are core)
!   the spherical harmonic 6-31G(d) basis has 620 AOs and 584 MOs.
!
!   GAMESS' FORTRAN: FINAL= -1608.4175765128, 14 its, E(MP2)= -1613.3982877016
!   GAMESS+LIBCCHEM: FINAL= -1608.4175765359, 14 its, E(MP2)= -1613.3982877273
!
!   this run took 508 seconds on one node w/6 cores and w/2 Fermi GPUs
!   The distributed memory should fit in a single node with 24 GBytes.
!
 $contrl scftyp=rhf mplevl=2 runtyp=energy ispher=1 $end
 $system mwords=20 memddi=2000 $end
 $basis  gbasis=n31 ngauss=6 ndfunc=1 $end
 $guess  guess=huckel $end
 $scf    dirscf=.true. $end

!   Coordinates are from Dave Woodcock at Okanagan University College,
!   starting with his http://people.ouc.bc.ca/woodcock/molecule/pdb file,
!   but with his atoms C62,H68,H69,H70 corrected to an OH group, after
!   which an AM1 optimization was done.  AM1 E= -232.0729178992
 $data
absinthin...at the AM1 geometry
C1
C           6.0    .0236965108   -.0276524400   -.0706454488
C           6.0   1.5594245392    .0739539720    .0416318239
C           6.0   2.0099902645   1.5314110309    .2639746989
C           6.0   1.8512954221   2.4578511199   -.9213881396
C           6.0    .4128549765   2.5779738244  -1.3650052648
C           6.0   -.0055229170   1.3669086243  -2.2311324660
C           6.0   -.5470389878    .2384278781  -1.4462460017
C           6.0  -1.4545818116   -.6892192081  -1.8306759688
H           1.0   -.3882352818    .7478030349    .6380376663
H           1.0   3.0993098401   1.5231471333    .5408260296
H           1.0   1.4458216834   1.9394035204   1.1428713021
H           1.0   2.2324286972   3.4745289551   -.6332602527
H           1.0   2.4853306708   2.0874701597  -1.7709707426
H           1.0   -.2532833608   2.6388103121   -.4613896327
H           1.0    .8730172642    .9861893993  -2.8329931735
O           8.0   -.9578756963   1.8745772682  -3.2030333879
C           6.0   -.8610417379   3.2493227029  -3.2683917041
O           8.0  -1.5602659801   3.8021813666  -4.1084418582
C           6.0    .1302464752   3.7919022157  -2.2608956753
H           1.0   1.0606644598   4.0913943345  -2.8172544359
C           6.0   -.4161105436   4.9780405660  -1.5098688157
C           6.0   2.0742365866   -.7426835708   1.2324097844
O           8.0   2.1196891993   -.4438781266  -1.1621717393
C           6.0   -.5554793348  -1.3989197225    .3111561915
C           6.0  -1.5724360703  -1.7971303064   -.8241111107
C           6.0  -2.2081105876   -.7398391158  -3.0909783267
H           1.0  -1.3301889615   4.6994231878   -.9316214451
H           1.0   -.6874203178   5.7909518118  -2.2272136816
H           1.0    .3527829451   5.3627602423   -.7972280844
H           1.0   2.1745981358  -1.8177221053    .9477609283
H           1.0   1.3696450251   -.6543139622   2.0923327677
H           1.0   3.0803727333   -.3819862548   1.5552312041
H           1.0   3.0780023654   -.3834290936  -1.0675670462
H           1.0    .2430871038  -2.1738390129    .3865265648
H           1.0  -1.2915159310  -2.7665833173  -1.3084109510
H           1.0  -1.7316841244   -.1052386165  -3.8793379974
H           1.0  -3.2534362265   -.3707955184  -2.9251867270
H           1.0  -2.2781604084  -1.7929864987  -3.4649815031
C           6.0  -1.4304411784  -1.4062920422   1.5933193097
C           6.0  -2.3248909862  -2.6536454647   1.2704473173
C           6.0  -2.9110645186  -1.9987928841   -.0522721114
H           1.0   -.8635109221  -1.4368810517   2.5410131954
H           1.0  -1.6651100918  -3.5227673365   1.0069440851
C           6.0  -2.4369885110   -.2812243890   1.4510463547
C           6.0  -3.3160688478   -.6185693620    .4752534990
C           6.0  -4.4547242466    .1388258788   -.0494588222
H           1.0  -2.4040947015    .6226644495   2.0544647356
H           1.0  -4.3085039117   1.2370795148    .1015151092
H           1.0  -5.3968942200   -.1627605209    .4772787726
H           1.0  -4.5847496587   -.0592994450  -1.1445921384
C           6.0  -3.2718861215  -3.1597772198   2.3586463882
C           6.0  -3.7442415054  -4.5913826383   2.0351294575
C           6.0  -4.6108136799  -4.7432305514    .8043783713
C           6.0  -3.9108846085  -4.3177780846   -.4661524544
C           6.0  -4.0177253293  -2.7922930421   -.6942873383
H           1.0  -4.3371297042  -4.9547421102   2.9176623726
H           1.0  -2.8389447536  -5.2461169906   1.9404773403
H           1.0  -5.5598769516  -4.1586726003    .9392003806
H           1.0  -4.9001221274  -5.8254435299    .7108359711
H           1.0  -2.8267934483  -4.6119598508   -.4148539372
H           1.0  -5.0124115703  -2.4151184222   -.3130033275
O           8.0  -4.4037015473  -2.3354759009   2.6059109980
C           6.0  -2.5233060373  -3.2060511130   3.6962125691
C           6.0  -4.5144003618  -4.9210917621  -1.7439616192
C           6.0  -4.3974060790  -3.7910876119  -2.7434214021
O           8.0  -4.5410997554  -3.7449651209  -3.9578498349
O           8.0  -4.0671215887  -2.5967319676  -2.1275235710
H           1.0  -4.7680608381  -2.0776983374   1.7510726055
H           1.0  -2.3226247184  -2.1679817366   4.0525629921
H           1.0  -1.5604440622  -3.7526463030   3.5707673875
H           1.0  -3.1474226860  -3.7238452739   4.4624845964
H           1.0  -5.6078503328  -5.1382254443  -1.5933901827
C           6.0  -3.8089831900  -6.1679234684  -2.2099893307
H           1.0  -3.9414640821  -6.9818199577  -1.4568116502
H           1.0  -4.2343375359  -6.5033726877  -3.1875927322
H           1.0  -2.7159555262  -5.9832012751  -2.3466613818
 $end
