!   MP2 computation on cyclic zwitterion form of glycine.
!   there are 10 atoms, and 20 occupied MOs (5 are core)
!   the cc-pVQZ basis has 525 AOs and 425 MOs.   (angular momentum to g type)
!
!   GAMESS' FORTRAN: FINAL= -282.9187714298, 13 its, E(MP2)= -284.0149907611
!   GAMESS+LIBCCHEM: FINAL= -282.9187714290, 13 its, E(MP2)= -284.0149907586
!
!   this run took 652 seconds on one node  w/6 cores and 2 Fermi GPUs
!   this run took 624 seconds on two nodes w/6 cores and 2 Fermi GPUs
!
 $contrl scftyp=rhf mplevl=2 runtyp=energy ispher=1 $end
 $system mwords=10 memddi=50 $end
 $basis  gbasis=ccq $end
 $scf    dirscf=.true. $end
!
!                      -
!             H8 --- O4            H8 to O4 is a Hydrogen-bond:
!             | +    |                  + NH3-CH2-COO -
!          H9-N5    C2=O1
!            / \    /
!           H10 \  /
!                C3
!                /\
!               H6 H7
!
 $data
zwiterionic form of amino acid glycine...located with semiempirical PM3 model
C1
O   8.0  -1.7470377588   0.5007440705  -0.0079331729
C   6.0  -0.6407973766  -0.0201496592  -0.0073538288
C   6.0   0.6718643026   0.9023101844   0.0269109839
O   8.0  -0.3374268639  -1.2533308984  -0.0309649610
N   7.0   1.8165077160  -0.0568105702   0.0183692703
H   1.0   0.6801407869   1.5803504948  -0.8465477113
H   1.0   0.6609783830   1.5416599946   0.9290478660
H   1.0   1.3638202683  -1.0066519683  -0.0070948395
H   1.0   2.3926596013   0.0747903510  -0.7849930983
H   1.0   2.3752620457   0.0395583365   0.8388365227
 $end
