!     19 water cluster: 95 occupied MOs, of which 19=core and 76=correlated.
!
!     This is used in the MP2 paper with the aug-cc-pVTZ basis,
!       A.Asadchev, M.S.Gordon  to appear
!     but a smaller basis can be chosen to avoid SCF convergence problems.
!
!     Test is set to use a smaller CCT basis to avoid linear dependence:
!
!         FINAL E= -1445.3049117167, 11 iters, E(MP2)= -1450.4370012817
!
!     This run takes 1234 seconds on three nodes w/6 cores and 2/4 GPUs
!     This run requires a minimum of three 24 GByte nodes, from
!        three * 18g * 1000/8= 6,750 > 5,000 required.
!     where 18g is available for distributed memory if you run on a 24 GB 
!     node that allocates memory=6g for cores.
!
!     notes about the convergence difficulties w/Andrey's largest basis:
!
!          using the cc-pVTZ basis set: 1235 AOs, 1102 MOs
!     no linear dependence warnings, and SCF convergence is crisp.
!
!          using the aug-cc-pVTZ basis set: 1995 AOs, 1748 MOs
!     No orbitals are dropped for linear dependence, but ten warnings print,
!     and the SCF does not converge readily.  To get past the SCF into
!     the MP2, a very loose convergence criterion may be input.
!
!     Note: this run can use distributed memory or disk space, your choice.
!           It requires >=2 nodes with 24 GBytes to aggregate >= 5,000 Mwords,
!           as we can see from 2*24*1000/8 =  6,000.
!           It requires >=5 nodes with 24 GBytes to aggregate >=13,000 Mwords,
!           as we can see from 5*24*1000/8 = 15,000.
!
!      CCT: RHF E= -1445.3049117167, 11 iters, MP2= -1450.4370012817
!           this takes  958 seconds on four nodes w/6 cores,
!           some nodes have 2 GPU, some 4 GPU, using distributed memory.
!      CCT: RHF E= -1445.3049117166, 11 iters, MP2= -1450.4370012737
!           this takes 3396 seconds on one node w/6 cores, 2 GPUs, on disk.
!
!     ACCT: RHF E= -1445.3271434713,  8 iters, MP2= -1450.5814764086
!           this takes 7208 seconds on five nodes w/6 cores and 2 or 4 GPUs.
!           MP2 energy is likely to depend on the number of nodes used,
!           since the SCF is likely to vary from run to run.
!           Converged SCF obtained from GAMESS' FORTRAN is -1445.3271437761
!
 $contrl scftyp=rhf mplevl=2 runtyp=energy ispher=1 icut=11 $end

!            select the basis set here:
 $basis  gbasis=cct $end
!            for ACCT, we can get "convergence" by being sloppy at the SCF:
x$basis  gbasis=acct $end
x$scf    conv=1d-3 $end
!            for CCT, need 5,000 if using distributed memory:
 $system mwords=50 memddi=5000 $end
!            for ACCT, need 13,000 if using distributed memory:
x$system mwords=50 memddi=13000 $end
!            either basis, running on disk, without distributed memory.
!            without access to a distributed file system, a run without
!            distributed memory will only work if run on one node!
x$system mwords=50 memddi=0 $end

 $guess  guess=huckel $end
 $scf    dirscf=.true. fdiff=.false. diis=.true. $end
 $data
a cluster of 19 water molecules
C1
O     8.0    -1.78991616     1.51321268    -1.17846560
H     1.0    -2.63160253     1.02336538    -1.09895003
H     1.0    -1.15355742     0.93276870    -0.69523132
O     8.0     0.03256222    -0.00540767     0.13005355
H     1.0    -0.35332650    -0.69045568     0.71966332
H     1.0     0.46829712     0.62864405     0.73986930
O     8.0    -0.85363150    -1.95142651     1.87846744
H     1.0    -1.07489336    -2.75816417     1.37330317
H     1.0     0.02089709    -2.13528371     2.27440882
O     8.0     1.06520760     1.83756971     1.91953564
H     1.0     1.23064220     2.66505122     1.42920911
H     1.0     0.22568412     1.99214089     2.39570808
O     8.0     1.73641634    -1.51936114    -1.41953897
H     1.0     2.58546662    -1.04462707    -1.40085292
H     1.0     1.15706909    -0.95156366    -0.86611968
O     8.0    -2.27744603    -2.15163183    -1.65043962
H     1.0    -1.59433770    -1.86047184    -2.29534626
H     1.0    -1.86597717    -2.85818720    -1.12471521
O     8.0    -1.55144691     2.21537280     2.78981614
H     1.0    -1.87911713     2.47582364     3.65565515
H     1.0    -2.06409597     1.39428926     2.54987955
O     8.0     1.82080972    -2.38163829     2.50934529
H     1.0     2.22141600    -2.68867564     3.32788968
H     1.0     2.31922412    -1.55504334     2.26618338
O     8.0     2.08894253     2.25089574    -1.78461218
H     1.0     1.73510921     2.91356802    -1.16536236
H     1.0     1.34533358     2.00852728    -2.36458111
O     8.0    -3.74023104    -0.30841121    -0.52601981
H     1.0    -4.65837812    -0.45104295    -0.77304435
H     1.0    -3.22439122    -1.05537033    -0.94802779
O     8.0    -2.83434486    -0.00223514     2.14908385
H     1.0    -3.24076509    -0.08692872     1.26703334
H     1.0    -2.21210384    -0.74986345     2.19814873
O     8.0     3.06440306    -0.12777184     1.87382472
H     1.0     3.37404418     0.01256554     0.96071756
H     1.0     2.45581913     0.61399335     2.03583312
O     8.0    -1.09132063    -4.04631138     0.09570936
H     1.0    -1.39785254    -4.95681858     0.12755242
H     1.0    -0.09658303    -4.08390713     0.02715018
O     8.0     1.10324681     4.00937319     0.18579009
H     1.0     0.10637553     4.03389645     0.23220530
H     1.0     1.40258861     4.92066193     0.25049314
O     8.0     3.71505260     0.36947882    -0.85503620
H     1.0     4.60499001     0.55744976    -1.16647112
H     1.0     3.14623713     1.10223055    -1.20829225
O     8.0    -1.50650442     3.76858592     0.40424705
H     1.0    -1.64831102     3.36993694     1.28085971
H     1.0    -1.72104180     3.03906488    -0.21217906
O     8.0     1.53279436    -3.84248710     0.05530571
H     1.0     1.76399279    -3.48323584     0.92861205
H     1.0     1.70697057    -3.09136963    -0.54939067
O     8.0    -0.20825966     1.56738877    -3.34458327
H     1.0    -0.91555774     1.62269461    -2.65996385
H     1.0    -0.47499621     2.15875006    -4.05447006
O     8.0    -0.29205805    -1.32680857    -3.36251712
H     1.0    -0.28330368    -0.37130281    -3.53034186
H     1.0     0.52826470    -1.47084963    -2.85809040
 $END
