!    the "cocaine" example used in 
!       A.Asadchev, M.S.Gordon  J.Chem.Theory Comput. 8, 4166-4176(2012)
!    structure of cocaine is incorrect: CH2 next to phenyl should be C=O,
!             and the orientation of the methyl on the nitrogen is goofy.
!
!    A total of four basis sets are mentioned in this paper's table 1.
!    Using the biggest here,
!         FINAL E= -936.4188001449, 25 iters
!    This run took 645 seconds on three nodes w/6 cores & 2/4 GPUs.
!
!    results from all runs:
!                           6-31G                  6-31G(d)
!    GAMESS            -935.7208972292 (12)   -936.1186417612 (13 iters)
!    GAMESS+LIBCCHEM   -935.7208972345 (12)   -936.1186417659 (13 iters)
!                           6-31++G(d,p)           6-311++G(2df,2p)
!    GAMESS            -936.1781807020 (18)   -936.4188001285 (25 iters)
!    GAMESS+LIBCCHEM   -936.1781807285 (19)   -936.4188001449 (25 iters)
!
!    Note: even with spherical harmonics turned on, the large basis
!    sets drop orbitals for linear dependence, and require DIIS.
!    Results above use ISPHER, Rys quadrature, and DIIS for all bases.
!    It is not clear what settings were used in the paper above!
!
 $contrl scftyp=rhf mplevl=0 cctyp=none runtyp=energy
         inttyp=rysquad ispher=1 $end
 $system mwords=15 memddi=0 $end

!           use only one of the following input groups:

!           6-31G: 235 AOs and 235 MOs
x$basis  gbasis=n31 ngauss=6 $end
!           6-31G(d): 361 AOs and 340 MOs
x$basis  gbasis=n31 ngauss=6 ndfunc=1 $end
!           6-31++G(d,p): 537 AOs and 515 MOs (1 dropped for lin.dep.)
x$basis  gbasis=n31 ngauss=6 diffs=.t. diffsp=.t.
         ndfunc=1 npfunc=1 $end
!           6-311++G(2df,2p): 1049 AOs and 942 MOs (2 dropped for lin.dep.)
 $basis  gbasis=n311 ngauss=6 diffs=.t. diffsp=.t. 
         ndfunc=2 nffunc=1 npfunc=2 $end
 
 $guess  guess=huckel $end
 $scf    dirscf=.true. diis=.true. $end
 $data
something quite similar to cocaine...coordinates from unknown source
C1
N    7.0    -2.0515 -2.2463 0.5398
C    6.0    -2.5724 -0.9967 -0.0173
C    6.0    -1.5509 0.1633 0.1153
C    6.0    -0.1833 -0.2311 -0.5405
C    6.0    0.1573 -1.7393 -0.3064
C    6.0    -1.0374 -2.6889 -0.4335
C    6.0    -2.0185 -2.6768 1.8756
C    6.0    -2.9503 -1.5082 -1.4714
C    6.0    -1.9023 -2.6736 -1.7348
C    6.0    -1.3681 0.5638 1.5711
O    8.0    -2.1998 1.3596 2.2529
C    6.0    -3.3672 1.9723 1.7691
O    8.0    -0.3935 0.1093 2.1722
O    8.0    0.9379 0.5482 -0.2113
C    6.0    1.8374 0.8525 -1.2679
C    6.0    3.0468 1.5757 -0.7534
C    6.0    4.2272 0.8795 -0.5070
C    6.0    5.3477 1.5491 -0.0306
C    6.0    5.2920 2.9182 0.2014
C    6.0    4.1162 3.6172 -0.0437
C    6.0    2.9957 2.9471 -0.5206
H    1.0    -0.3752 -0.1935 -1.6425
H    1.0    -3.5190 -0.7616 0.4736
H    1.0    -1.9158 1.0366 -0.4049
H    1.0    0.9855 -2.0277 -0.9655
H    1.0    0.5556 -1.8299 0.7165
H    1.0    -0.7090 -3.6935 -0.1909
H    1.0    -2.5829 -3.6111 2.0226
H    1.0    -0.9924 -2.8671 2.2258
H    1.0    -2.4551 -1.9296 2.5527
H    1.0    -2.8509 -0.7304 -2.2132
H    1.0    -3.9551 -1.9045 -1.4944
H    1.0    -1.3139 -2.4732 -2.6174
H    1.0    -2.4052 -3.6272 -1.8346
H    1.0    -3.7577 2.6488 2.5504
H    1.0    -3.1702 2.5869 0.8886
H    1.0    -4.1552 1.2551 1.5464
H    1.0    1.2828 1.4714 -1.9776
H    1.0    2.1193 -0.0777 -1.7630
H    1.0    4.2713 -0.1846 -0.6880
H    1.0    6.2615 1.0059 0.1594
H    1.0    6.1628 3.4390 0.5718
H    1.0    4.0731 4.6812 0.1365
H    1.0    2.0827 3.4921 -0.7113
 $END

