!   taxol ... C47 O14 N1 H51
!   39 atoms, 226 occuped MOs (62 core, 164 correlated valence)
!   coordinates taken from Dave Woodcock's web page, then AM1 optimized.
!
!   This example was used in the SCF paper with five basis sets,
!       A.Asadchev, M.S.Gordon  J.Chem.Theory Comput. 8, 4166-4176(2012)
!   and in the forthcoming MP2 paper with two basis sets
!       A.Asadchev, M.S.Gordon  to appear
!   The run is set to do the MP2 calculation with CCD, the smaller of these.
!
!   FINAL E= -2912.0757783195, 17 iters, E(MP2)= -2921.1742872711
!
!   This run takes 3473 seconds on ten nodes w/6 cores and 2/4 GPUs
!   Setting aside memory=6g for the cores, nodes with 24 GBytes total
!   have 18g left for distributed memory (MEMDDI below).
!   The minimum number of nodes to run this job is thus:
!       ten nodes * 18g * 1000/8= 22,500 mwords > 21,000
!
!   combined results for all basis sets:
!                         SCF energy               MP2 energy
!   6-31G:          -2910.5893362361, 14 iters        n/a
!   6-31G(d):       -2911.8097328663, 14 iters        n/a
!   6-311++G(d,p):  -2912.xxxxxxxxxx, xx iters        n/a          (not run)
!   cc-pVDZ:        -2912.0757783195, 17 iters    -2921.1742872711
!   aug-cc-pVDZ:    -2912.xxxxxxxxxx, xx iters    -2921.xxxxxxxxxx (not run)
!   cc-pVTZ:        -2912.8190142578, 14 iters        n/a
!   
!   Note that every run above used its basis in spherical harmonic form.
!   Runs which go on to the MP2 will converge the SCF a little tighter, 
!   affecting the number of iterations.
!   SCF convergence of the two basis sets that drop molecular orbitals may
!   require some combination of DIIS, FDIFF, and QMTTOL.
!
!            For MP2 runs:
!   a) The CCD basis has 1185 AOs, 1123 MOs, no linear dependence problems.
!      Its distributed memory requirement is 21,000 (ten nodes w/24 GBytes).
!      The MP2 can also be run (identical result) in ~6000 seconds on one node,
!      by removing the distributed memory input, to run on disk storage.
!   b) The ACCD basis has 2009 AOs, 1865 MOs after 20 dropped for linear
!      dependence, and warnings about 43 more near linear-dependencies,
!      and requires distributed memory 58,000 (~26 nodes with 24 GBytes).
!
 $contrl scftyp=rhf mplevl=2 runtyp=energy ispher=1 $end

!           for SCF only runs, or to use HDF5 storage in MP2, use next line
x$system mwords=75 memddi=0 $end
!           for the smaller of the two SCF+MP2 runs, use next line
 $system mwords=75 memddi=21000 $end

!           use only one of the following input groups:
!           6-31G:  660 AOs and MOs
x$basis  gbasis=n31 ngauss=6 $end
!           6-31G(d): 1032 AOs and 970 MOs
x$basis  gbasis=n31 ngauss=6 ndfunc=1 $end
!           6-31++G(d,p): 1484 AOs and 1405 MOs, after dropping 17 for
!                         linear dependence (22 more warnings printed)
x$basis  gbasis=n31 ngauss=6 diffsp=.t. diffs=.t. ndfunc=1 npfunc=1 $end
!           cc-pVDZ:  1185 AOs and 1123 MOs
 $basis  gbasis=ccd $end
!           aug-cc-pVDZ: 2935 AOs and 2574 MOs, after dropping 20 for
!                        linear dependence (43 more warnings printed)
x$basis  gbasis=accd $end
!           cc-pVTZ: 2935 AOs and 2574 MOs
x$basis  gbasis=cct $end

 $guess  guess=huckel $end
 $scf    dirscf=.true. $end

 $data
taxol...AM1 structure
C1
C           6.0   1.7975452446   -.3732402239  -2.0473634497
C           6.0   2.8323530408    .0940650788  -1.0010911894
C           6.0   2.7105888387   1.6007479970   -.5246021009
C           6.0   2.8125439942   2.6141786345  -1.7264967816
C           6.0   2.6141479189   1.8094528566  -3.0195498544
C           6.0   1.4009406024    .8534075954  -2.7969958198
C           6.0   1.9479977484   3.8754918654  -1.5749502914
C           6.0   3.9109528912   1.8329456717    .4056544979
C           6.0   2.7482554349   5.2155836119  -1.4279396980
O           8.0   1.1298391023   4.0703213480  -2.7375867493
O           8.0   1.7579418677   6.2061916655  -1.6999314129
C           6.0   3.2958534390   5.3791724489    .0237271789
C           6.0   4.3390832206   4.3046259253    .1664667587
C           6.0   5.3753860882   4.3102699490   -.7143813045
O           8.0   4.6994076835    .9046051133    .6408634865
C           6.0   4.2576714471   3.1604079316   1.1296416934
C           6.0   3.8710921968   5.3546998753  -2.4648075991
C           6.0   5.2974991963   5.2133162318  -1.9141520672
O           8.0   3.9406871444   1.3000844637  -3.2332422111
C           6.0   4.2593469946    .2629738910  -4.0673451042
O           8.0   3.3915976973   -.3517069040  -4.6805498390
C           6.0   5.7350773734    .0274614614  -4.0808796434
C           6.0   1.9474394318   2.0488048513  -4.4200523487
O           8.0   1.0732696015    .8922002789  -4.2097626755
O           8.0   2.6635248304   -.7847539426    .0981159514
O           8.0   3.3214371157   3.3939561319   2.1751158750
C           6.0   3.5883373026   2.9087671344   3.4438139986
O           8.0   2.7134447834   3.2613045922   4.2340681585
C           6.0   4.7809882211   2.0732340831   3.7406025527
C           6.0   6.5545532376   3.4259195592   -.5839602382
O           8.0   6.0420930391   4.6297249933  -3.0064758608
C           6.0   7.2222387058   5.2032139518  -3.3898831501
O           8.0   7.6218448560   6.2180390945  -2.8238237798
C           6.0   7.8418223476   4.4767819304  -4.5684218549
C           6.0   9.3884382167   4.3982690623  -4.3964282442
C           6.0  10.0210574459   4.1806428427  -5.7516058103
C           6.0  10.9938770517   5.0796063772  -6.2015313636
C           6.0  11.5965113193   4.8903408049  -7.4449199445
C           6.0  11.2368122381   3.8021873567  -8.2396521797
C           6.0  10.2719363830   2.9006685260  -7.7895974937
C           6.0   9.6662925309   3.0875249789  -6.5480851225
O           8.0   7.3164861205   3.1726360719  -4.7203101874
N           7.0   9.7757485745   3.4134737417  -3.4172042690
C           6.0  10.8384369484   3.6210529271  -2.5510137385
O           8.0  11.3815766537   4.7385163450  -2.4494533408
C           6.0  11.2512727333   2.4691758582  -1.6986133834
C           6.0  11.3310921808   1.1675241986  -2.2027589381
C           6.0  11.7421745295    .1261758393  -1.3709669630
C           6.0  12.0719060928    .3803793810   -.0395683855
C           6.0  12.0008056792   1.6806016980    .4611272914
C           6.0  11.5960054883   2.7267903212   -.3661301752
C           6.0   -.2375752767   4.0094029447  -2.5944086783
O           8.0   -.6993811121   3.5607483519  -1.5420037001
C           6.0   -.9748053504   4.4606333527  -3.7834683289
C           6.0   -.3377699565   5.1634970242  -4.8129301145
C           6.0  -1.0722605975   5.5822587373  -5.9210712255
C           6.0  -2.4363987596   5.3005475334  -6.0042781447
C           6.0  -3.0717385296   4.6015523957  -4.9772089107
C           6.0  -2.3460709932   4.1808136928  -3.8644614828
C           6.0   3.9625695466   6.7579863800    .1924088294
C           6.0   2.1547470723   5.3619525801   1.0309751094
H           1.0   3.8911276195   2.9499855399  -1.7621838736
H           1.0   3.8681043582   -.0279593287  -1.4297279840
H           1.0    .9209891501   -.8451680460  -1.5343033514
H           1.0   2.2638497854  -1.1412254417  -2.7154742329
H           1.0    .5669158908   1.3901217160  -2.2618095431
H           1.0   1.2798548944   3.7992912292   -.6717300316
H           1.0   2.1080077987   7.0552763976  -1.4030312590
H           1.0   5.2924685698   3.0171301052   1.5744728498
H           1.0   3.7871621449   6.3599447371  -2.9572285002
H           1.0   3.7118998595   4.5879062440  -3.2706942543
H           1.0   5.7386992754   6.2188916461  -1.6564187004
H           1.0   6.0418072524   -.4214019979  -3.1044630956
H           1.0   6.2827100307    .9922169057  -4.2208598574
H           1.0   5.9846697587   -.6751538107  -4.9119404965
H           1.0   2.6170076293   1.8577168605  -5.2851409319
H           1.0   1.3458334993   2.9723923105  -4.5484671789
H           1.0   3.5033973304   -.8305779893    .5720998815
H           1.0   5.7002977376   2.7096801497   3.7465334814
H           1.0   4.8987187889   1.2622762967   2.9781804609
H           1.0   4.6604602084   1.6102564606   4.7516546831
H           1.0   7.0340875281   3.5644857410    .4187709503
H           1.0   7.3235605536   3.6474338919  -1.3649650123
H           1.0   6.2536458071   2.3509104191   -.6848284722
H           1.0   7.6169535296   5.0924012859  -5.4875570272
H           1.0   9.7132708135   5.4158991618  -4.0023574985
H           1.0  11.2912504227   5.9318467756  -5.5702060741
H           1.0  12.3603516138   5.6001240465  -7.7954659760
H           1.0  11.7143999372   3.6539228056  -9.2193479797
H           1.0   9.9878708812   2.0408928934  -8.4138626520
H           1.0   8.8973514048   2.3823458497  -6.1937391421
H           1.0   6.3513351298   3.2451212140  -4.7269731699
H           1.0   9.4447449069   2.4890682758  -3.5694532657
H           1.0  11.0927238399    .9558442334  -3.2559528325
H           1.0  11.8094284809   -.8971625123  -1.7688500918
H           1.0  12.3935175989   -.4442514657    .6139943138
H           1.0  12.2700930419   1.8838261041   1.5081945242
H           1.0  11.5555263336   3.7610285177    .0118038276
H           1.0    .7383936577   5.3857002728  -4.7344509871
H           1.0   -.5738955831   6.1356388491  -6.7304287073
H           1.0  -3.0126693175   5.6307000618  -6.8817624749
H           1.0  -4.1473083487   4.3803951207  -5.0436818617
H           1.0  -2.8365115276   3.6307727630  -3.0449272234
H           1.0   4.9093761918   6.6620787036    .7750606197
H           1.0   3.2878641957   7.4579864002    .7447501494
H           1.0   4.1962208191   7.2336067892   -.7897819490
H           1.0   1.6532352115   4.3710483594   1.1106484662
H           1.0   1.3851296434   6.1140306448    .7248357329
H           1.0   2.5398011940   5.6246774174   2.0470515526
C           6.0   1.4408601213   1.7034945832    .3081103700
H           1.0    .5498122260   1.9154917038   -.3329732699
H           1.0   1.5221910067   2.4983147428   1.0882097263
H           1.0   1.2536225619    .7358404652    .8408045517
 $end
