!   SCF computation on cytosine...C4N3OH5...one of five nucleic acids.
!   there are 13 atoms and 29 occupied MOs (8 are core)
!   the spherical harmonic form of 6-31G(d) has 130 AOs and 122 MOs.
!
!      GAMESS' FORTRAN:  FINAL energy= -392.5967590966, 13 iters
!      GAMESS+LIBCCHEM:  FINAL energy= -392.5967590970, 13 iters
!
!   this run took 6 seconds on a node with 6 cores and 1 GPU
!
!   the iterations from a serial GAMESS FORTRAN run:
!     ITER EX DEM  TOTAL ENERGY        E CHANGE  DENSITY CHANGE     ORB. GRAD 
!       1  0  0  -391.3416832210  -391.3416832210   0.421479700   0.000000000
!                   ------------START SECOND ORDER SCF---------------
!       2  1  0  -392.3560509947    -1.0143677737   0.281554872   0.090366715 
!       3  2  0  -392.4155080016    -0.0594570069   0.133184145   0.090461473 
!       4  3  0  -392.5900240101    -0.1745160085   0.060046977   0.016560570 
!       5  4  0  -392.5959433843    -0.0059193742   0.008039292   0.005506980 
!       6  5  0  -392.5966806086    -0.0007372243   0.003503635   0.002168577 
!       7  6  0  -392.5967390762    -0.0000584676   0.001857628   0.000888835 
!       8  7  0  -392.5967571561    -0.0000180799   0.000848789   0.000252516 
!       9  8  0  -392.5967588135    -0.0000016574   0.000267884   0.000057678 
!      10  9  0  -392.5967590641    -0.0000002506   0.000074091   0.000037344 
!      11 10  0  -392.5967590929    -0.0000000288   0.000021485   0.000005849 
!      12 11  0  -392.5967590962    -0.0000000032   0.000010387   0.000005818 
!      13 12  0  -392.5967590966    -0.0000000004   0.000003973   0.000000983 
!   parallel runs and/or runs with LIBCCHEM may vary slightly from these.
!
 $contrl scftyp=rhf runtyp=energy coord=zmt ispher=1 $end
 $system mwords=5 $end
 $basis  gbasis=n31 ngauss=6 ndfunc=1 $end
 $guess  guess=huckel $end
 $scf    dirscf=.true. $end
 $data
cytosine...one of the bases found in nucleic acids...RHF/6-31G(d)//RHF/AM1
C1
C   
C      1   1.4650373
C      2   1.3716299  1   117.7958997
N      3   1.3647282  2   121.3155803  1      .3498173  0
C      4   1.4396187  3   119.9661479  2      .2091058  0
N      5   1.4011663  3    90.9801250  2      .2114610  0
O      5   1.2468098  4   115.9883744  3   179.7178226  0
N      1   1.3788003  2   118.0962168  3   176.8645647  0
H      2   1.0941969  3   121.2004089  4   179.6832397  0
H      3   1.1066467  4   117.1420349  5  -179.7448468  0
H      4    .9940077  5   118.5566942  6  -179.8953981  0
H      8    .9887008  1   117.8840921  2    15.7868234  0
H      8    .9916901  1   119.8259677  2   173.2680833  0
 $end
