!   SCF computation on cyclic-AMP...energy storage molecule
!   there are 33 atoms, and 85 occupied MOs (26 are core)
!   the cc-pVDZ basis has 395 AOs and 372 MOs.
!
!      GAMESS' FORTRAN:  FINAL energy=  -1447.4326317396, 14 ITERATIONS
!      GAMESS+LIBCCHEM:  FINAL energy=  -1447.4326317411, 14 ITERATIONS
!
!   this run took 163 seconds on a node with 6 cores and 1 GPU
!
!   the iterations from a serial GAMESS FORTRAN run:
!      ITER EX DEM  TOTAL ENERGY        E CHANGE  DENSITY CHANGE     ORB. GRAD 
!        1  0  0 -1443.4756590702 -1443.4756590702   0.479208634   0.000000000 
!               ---------------START SECOND ORDER SCF---------------
!        2  1  0 -1446.8922088709    -3.4165498007   0.310703899   0.087206087 
!        3  2  0 -1447.1225159264    -0.2303070556   0.148721518   0.070970880 
!        4  3  0 -1447.4250974375    -0.3025815111   0.032081424   0.007774799 
!        5  4  0 -1447.4315196913    -0.0064222538   0.008578063   0.002736578 
!        6  5  0 -1447.4324477465    -0.0009280552   0.003046968   0.002392470 
!        7  6  0 -1447.4326001101    -0.0001523636   0.000764066   0.000451267 
!        8  7  0 -1447.4326239276    -0.0000238175   0.000586094   0.000287926 
!        9  8  0 -1447.4326299530    -0.0000060255   0.000402352   0.000174837 
!       10  9  0 -1447.4326314500    -0.0000014970   0.000207558   0.000053033 
!       11 10  0 -1447.4326317035    -0.0000002535   0.000048169   0.000012581 
!       12 11  0 -1447.4326317374    -0.0000000339   0.000020281   0.000007081 
!       13 12  0 -1447.4326317392    -0.0000000018   0.000006300   0.000002001 
!       14 13  0 -1447.4326317396    -0.0000000004   0.000003654   0.000000789 
!   parallel runs and/or runs with LIBCCHEM may vary slightly from these.
!
 $contrl scftyp=rhf runtyp=energy icharg=-1 ispher=1 $end
 $system mwords=5 memddi=0 $end
 $basis  gbasis=ccd $end
 $guess  guess=huckel $end
 $scf    dirscf=.true. $end
 $data
cyclic AMP...PM3 geometry...PM3 E= -148.9399327109, R M S= 0.0000063
C1
P          15.0  -4.3343956653    .3959576071   -.6902888908
O           8.0  -2.9256289047   -.6382020324  -1.1683329898
C           6.0  -1.7163733700   -.1880771405   -.7068205684
C           6.0  -1.7548349868    .0902528412    .8239745582
C           6.0  -2.4312969649   1.4529324054   1.0790851148
O           8.0  -3.4813361428   1.6747547015    .2081380112
C           6.0   -.5320353386  -1.1982602426   -.8210877698
C           6.0    .3479472961   -.8079584589    .4241263505
O           8.0   -.4011632710    .0336747605   1.2939780284
H           1.0  -2.2960480979   -.7178246017   1.3724657850
H           1.0  -1.4248520095    .7343351474  -1.2709110986
O           8.0   -.8612244986  -2.5586267212   -.7509506555
O           8.0  -4.8182751231   1.0475994658  -1.9254810920
O           8.0  -5.0801958820   -.4347203042    .2841582158
H           1.0  -1.8007305176  -2.6138763917   -.6129185292
H           1.0    .6809885474  -1.6932043526   1.0166298964
N           7.0   1.5447589700   -.0123948400    .0529078106
H           1.0  -2.7976939470   1.5150643869   2.1219221998
H           1.0  -1.7165877630   2.2873037206    .9351647313
H           1.0    .0294167304  -1.1026083752  -1.7754014811
C           6.0   5.0769561643    .6168474600   -.1001066687
N           7.0   5.6071276184   -.4963261644    .4767010161
C           6.0   4.7762372519  -1.4805063375    .9613434837
N           7.0   3.4353217425  -1.4627151376    .9064701227
C           6.0   2.8865096207   -.3504939283    .3051706041
C           6.0   3.6700109319    .7116045230   -.2131978215
C           6.0   1.5520835685   1.2425761732   -.6018940422
N           7.0   2.8083830486   1.6782100801   -.7682617991
N           7.0   5.9599752098   1.6470806779   -.4648623091
H           1.0   5.2620414023  -2.3471882789   1.4265876267
H           1.0    .6489186462   1.7816003735   -.9152355323
H           1.0   5.5935920766   2.2409355696  -1.1723221222
H           1.0   6.8900450689   1.3486999784   -.6520437902
 $end
