!   SCF computation on ginkgolide A, C20O9H24...from ginkgo biloba tree
!   there are 53 atoms and 108 occupied MOs (29 are core)
!   the polarization consistent DZ basis has 555 AOs and 526 MOs.
!
!      GAMESS' FORTRAN:  FINAL energy= -1444.6609642389, 13 iters
!      GAMESS+LIBCCHEM:  FINAL energy= -1444.6609642451, 13 iters
!
!   this run took 372 seconds on a node with 6 cores and 1 GPU
!
!   the iterations from a serial GAMESS FORTRAN run:
!    ITER EX DEM  TOTAL ENERGY        E CHANGE  DENSITY CHANGE     ORB. GRAD
!      1  0  0 -1440.1581135620 -1440.1581135620   0.396557338   0.000000000 
!             ---------------START SECOND ORDER SCF---------------
!      2  1  0 -1443.9431117316    -3.7849981696   0.299925980   0.103927314 
!      3  2  0 -1444.0607527451    -0.1176410135   0.152726578   0.083850033 
!      4  3  0 -1444.6400895235    -0.5793367784   0.075843158   0.015761464 
!      5  4  0 -1444.6584980066    -0.0184084831   0.014600303   0.005549469 
!      6  5  0 -1444.6607994615    -0.0023014549   0.004004962   0.000879493 
!      7  6  0 -1444.6609246575    -0.0001251960   0.001817702   0.000872823 
!      8  7  0 -1444.6609611188    -0.0000364613   0.000549590   0.000186471 
!      9  8  0 -1444.6609634257    -0.0000023070   0.000247484   0.000058760 
!     10  9  0 -1444.6609641673    -0.0000007416   0.000063950   0.000020269 
!     11 10  0 -1444.6609642250    -0.0000000577   0.000038324   0.000011445 
!     12 11  0 -1444.6609642347    -0.0000000097   0.000015594   0.000004561 
!     13 12  0 -1444.6609642389    -0.0000000042   0.000005702   0.000002172 
!   parallel runs and/or runs with LIBCCHEM may vary slightly from these.
!
 $contrl scftyp=rhf runtyp=energy ispher=1 $end
 $system mwords=10 $end
 $basis  gbasis=pc1 $end
 $guess  guess=huckel $end
 $scf    dirscf=.true. $end
 $data
ginkgolide A...AM1 equilibrium geometry
C1
O    8.0   5.2726979300   3.9982981664   5.8348939702
H    1.0   5.7758809478   3.9945704163   6.6602166087
O    8.0   2.3410529517   5.2864700767   4.7562361358
O    8.0   3.8018866561   2.7410055199   2.9874905775
O    8.0  -0.4244329993   1.8060296887   5.6599897894
H    1.0  -1.1107705428   1.7610075912   6.3432508024
O    8.0  -0.9591523446   4.2768836607   7.3245985265
O    8.0   0.3721889009   5.2719501073   5.8418485844
O    8.0   4.8270816268   4.6969337969   3.1076861351
O    8.0   3.2217518063   2.8470987532   8.1967231969
O    8.0   2.9973015098   4.5047951012   9.6375198027
C    6.0   2.2276136275   2.1411827924   6.0953595614
H    1.0   1.3500675985   2.3901555965   6.7494469009
H    1.0   2.2346598490   1.0314697367   5.9605044139
C    6.0   3.4923443755   2.6215060472   6.8054891032
H    1.0   4.3250695172   1.8738079530   6.7634898871
C    6.0   3.9020365864   3.9951144308   6.1735623054
C    6.0   3.1130187734   4.0895515144   4.8491741446
C    6.0   2.1505688977   2.8560939549   4.7580410233
C    6.0   2.6961784497   2.0200019524   3.5743009483
H    1.0   3.1020234401   1.0223563012   3.8768658495
C    6.0   1.5699714498   1.9245722763   2.5517319022
H    1.0   0.9877258795   0.9838949338   2.7148958651
H    1.0   1.9845620811   1.9150859620   1.5124458638
C    6.0   0.6988981756   3.1609908147   2.7819743105
H    1.0   1.2359162658   4.0281574102   2.2854868373
C    6.0   0.7876219787   3.4480157122   4.2939536031
C    6.0  -0.4412056323   3.1207827458   5.1598042491
H    1.0  -1.3938289681   3.2816110151   4.5751897180
C    6.0  -0.4042897125   4.2000137738   6.2395476039
C    6.0   0.9730801117   4.9822384555   4.5673351365
H    1.0   0.5606298591   5.6910816988   3.8053374996
C    6.0   4.0070341614   3.9537572873   3.6178936829
C    6.0   3.5270813890   5.0380727837   7.2494765643
H    1.0   2.5720954614   5.5621181950   6.9461703321
C    6.0   3.2264022754   4.2072378938   8.4744784422
C    6.0   4.5922405162   6.0720296325   7.5125146410
H    1.0   4.1827749443   6.8703774268   8.1786355438
H    1.0   4.9188207002   6.5296013617   6.5467412441
H    1.0   5.4825370993   5.6230543330   8.0158598001
C    6.0  -0.6580043668   3.0661899003   2.0733709074
C    6.0  -1.5337619567   1.9271569861   2.5818303599
H    1.0  -1.0317973087   1.3592098692   3.4036709620
H    1.0  -1.7617789168   1.2028172966   1.7614097772
H    1.0  -2.5097850156   2.3133198485   2.9660572998
C    6.0  -0.3826953538   2.8341485067   0.5830967579
H    1.0   0.0565130757   1.8217518085   0.4163042715
H    1.0   0.3250700085   3.6015844236   0.1883413001
H    1.0  -1.3387106433   2.9033244244   0.0102259022
C    6.0  -1.3886232215   4.4015245500   2.1819357086
H    1.0  -2.3881595843   4.3295005824   1.6888273233
H    1.0  -0.8011578942   5.2039223530   1.6719301782
H    1.0  -1.5414102610   4.7068496646   3.2436094492
 $end
