C One of the excitation of water (the geometry is taken from exam08) by MOM (UHF/3-21G).
C ground-state energy:   -75.5854099068 Hartree
C excited-state energy:  -74.6801711720 Hartree
 $CONTRL SCFTYP=UHF $END
 $SYSTEM TIMLIM=1 MEMDDI=1 PARALL=.TRUE. $END
 $BASIS  GBASIS=N21 NGAUSS=3 $END
 $GUESS  GUESS=MOREAD NORB=13 NORDER=1 IORDER(5)=7,5,6 JORDER(5)=6,5 $END
! $SCF  rstrct=.t. $END
 $SCF  mom=.t. kproj=2 $END
 $DATA
Water (based on exam08) ...RHF/3-21G...exp.geom...R(OH)=0.95781,A(HOH)=104.4776
Cnv      2

OXYGEN     8.0
HYDROGEN   1.0   0.0     0.7572157    0.5865358
 $END
 $VEC   
 1  1 9.83231944E-01 9.58834554E-02 0.00000000E+00 0.00000000E+00 3.53702338E-03
 1  2-3.80157229E-02 0.00000000E+00 0.00000000E+00-6.79332331E-03 2.61576903E-03
 1  3 6.90750524E-03 2.61576903E-03 6.90750524E-03
 2  1-2.29151800E-01 2.17516662E-01 0.00000000E+00 0.00000000E+00 8.34825811E-02
 2  2 7.06272432E-01 0.00000000E+00 0.00000000E+00 9.34486599E-02 1.17150775E-01
 2  3 1.90833764E-02 1.17150775E-01 1.90833764E-02
 3  1 0.00000000E+00 0.00000000E+00 0.00000000E+00 3.98525776E-01 0.00000000E+00
 3  2 0.00000000E+00 0.00000000E+00 3.69754518E-01 0.00000000E+00-2.33864069E-01
 3  3-1.83325452E-01 2.33864069E-01 1.83325452E-01
 4  1 8.84246615E-02-8.22034050E-02 0.00000000E+00 0.00000000E+00 4.41972196E-01
 4  2-4.04997134E-01 0.00000000E+00 0.00000000E+00 5.07922552E-01 1.30893990E-01
 4  3 1.05229603E-01 1.30893990E-01 1.05229603E-01
 5  1 0.00000000E+00 0.00000000E+00 5.21291466E-01 0.00000000E+00 0.00000000E+00
 5  2 0.00000000E+00 6.32105180E-01 0.00000000E+00 0.00000000E+00 0.00000000E+00
 5  3 0.00000000E+00 0.00000000E+00 0.00000000E+00
 6  1-1.09213604E-01 3.48477863E-02-0.00000000E+00-0.00000000E+00 2.09200406E-01
 6  2 1.04497941E+00-0.00000000E+00-0.00000000E+00 4.66163956E-01-4.64259710E-02
 6  3-8.63110049E-01-4.64259710E-02-8.63110049E-01
 7  1-0.00000000E+00-0.00000000E+00-0.00000000E+00 3.03115292E-01-0.00000000E+00
 7  2-0.00000000E+00-0.00000000E+00 7.74745696E-01-0.00000000E+00 3.61592482E-02
 7  3 1.17667354E+00-3.61592482E-02-1.17667354E+00
 8  1-0.00000000E+00-0.00000000E+00-0.00000000E+00 1.82477529E-01-0.00000000E+00
 8  2-0.00000000E+00-0.00000000E+00 4.52720092E-01-0.00000000E+00 9.64975055E-01
 8  3-6.84074694E-01-9.64975055E-01 6.84074694E-01
 9  1 6.84629715E-02-9.87783273E-02 0.00000000E+00 0.00000000E+00-2.76682954E-01
 9  2-1.16459919E-01 0.00000000E+00 0.00000000E+00-3.01712976E-01 9.85008806E-01
 9  3-4.85555884E-01 9.85008806E-01-4.85555884E-01
10  1 0.00000000E+00 0.00000000E+00 1.02927269E+00 0.00000000E+00 0.00000000E+00
10  2 0.00000000E+00-9.65189150E-01 0.00000000E+00 0.00000000E+00 0.00000000E+00
10  3 0.00000000E+00 0.00000000E+00 0.00000000E+00
11  1-4.51932366E-02 1.35668418E-01-0.00000000E+00-0.00000000E+00-1.01003381E+00
11  2 1.72341553E-01-0.00000000E+00-0.00000000E+00 1.15274221E+00-2.60463794E-01
11  3-9.21759354E-02-2.60463794E-01-9.21759354E-02
12  1-0.00000000E+00-0.00000000E+00-0.00000000E+00-1.06704280E+00-0.00000000E+00
12  2-0.00000000E+00-0.00000000E+00 1.39623524E+00-0.00000000E+00 1.37468631E-01
12  3 5.07618442E-01-1.37468631E-01-5.07618442E-01
13  1 8.46426896E-02-1.64137533E+00-0.00000000E+00-0.00000000E+00-1.60538395E-01
13  2 1.99386284E+00-0.00000000E+00-0.00000000E+00 4.97522396E-01-2.87285875E-01
13  3-3.59615898E-01-2.87285875E-01-3.59615898E-01
 1  1 9.83231944E-01 9.58834554E-02 0.00000000E+00 0.00000000E+00 3.53702338E-03
 1  2-3.80157229E-02 0.00000000E+00 0.00000000E+00-6.79332331E-03 2.61576903E-03
 1  3 6.90750524E-03 2.61576903E-03 6.90750524E-03
 2  1-2.29151800E-01 2.17516662E-01 0.00000000E+00 0.00000000E+00 8.34825811E-02
 2  2 7.06272432E-01 0.00000000E+00 0.00000000E+00 9.34486599E-02 1.17150775E-01
 2  3 1.90833764E-02 1.17150775E-01 1.90833764E-02
 3  1 0.00000000E+00 0.00000000E+00 0.00000000E+00 3.98525776E-01 0.00000000E+00
 3  2 0.00000000E+00 0.00000000E+00 3.69754518E-01 0.00000000E+00-2.33864069E-01
 3  3-1.83325452E-01 2.33864069E-01 1.83325452E-01
 4  1 8.84246615E-02-8.22034050E-02 0.00000000E+00 0.00000000E+00 4.41972196E-01
 4  2-4.04997134E-01 0.00000000E+00 0.00000000E+00 5.07922552E-01 1.30893990E-01
 4  3 1.05229603E-01 1.30893990E-01 1.05229603E-01
 5  1 0.00000000E+00 0.00000000E+00 5.21291466E-01 0.00000000E+00 0.00000000E+00
 5  2 0.00000000E+00 6.32105180E-01 0.00000000E+00 0.00000000E+00 0.00000000E+00
 5  3 0.00000000E+00 0.00000000E+00 0.00000000E+00
 6  1-1.09213604E-01 3.48477863E-02-0.00000000E+00-0.00000000E+00 2.09200406E-01
 6  2 1.04497941E+00-0.00000000E+00-0.00000000E+00 4.66163956E-01-4.64259710E-02
 6  3-8.63110049E-01-4.64259710E-02-8.63110049E-01
 7  1-0.00000000E+00-0.00000000E+00-0.00000000E+00 3.03115292E-01-0.00000000E+00
 7  2-0.00000000E+00-0.00000000E+00 7.74745696E-01-0.00000000E+00 3.61592482E-02
 7  3 1.17667354E+00-3.61592482E-02-1.17667354E+00
 8  1-0.00000000E+00-0.00000000E+00-0.00000000E+00 1.82477529E-01-0.00000000E+00
 8  2-0.00000000E+00-0.00000000E+00 4.52720092E-01-0.00000000E+00 9.64975055E-01
 8  3-6.84074694E-01-9.64975055E-01 6.84074694E-01
 9  1 6.84629715E-02-9.87783273E-02 0.00000000E+00 0.00000000E+00-2.76682954E-01
 9  2-1.16459919E-01 0.00000000E+00 0.00000000E+00-3.01712976E-01 9.85008806E-01
 9  3-4.85555884E-01 9.85008806E-01-4.85555884E-01
10  1 0.00000000E+00 0.00000000E+00 1.02927269E+00 0.00000000E+00 0.00000000E+00
10  2 0.00000000E+00-9.65189150E-01 0.00000000E+00 0.00000000E+00 0.00000000E+00
10  3 0.00000000E+00 0.00000000E+00 0.00000000E+00
11  1-4.51932366E-02 1.35668418E-01-0.00000000E+00-0.00000000E+00-1.01003381E+00
11  2 1.72341553E-01-0.00000000E+00-0.00000000E+00 1.15274221E+00-2.60463794E-01
11  3-9.21759354E-02-2.60463794E-01-9.21759354E-02
12  1-0.00000000E+00-0.00000000E+00-0.00000000E+00-1.06704280E+00-0.00000000E+00
12  2-0.00000000E+00-0.00000000E+00 1.39623524E+00-0.00000000E+00 1.37468631E-01
12  3 5.07618442E-01-1.37468631E-01-5.07618442E-01
13  1 8.46426896E-02-1.64137533E+00-0.00000000E+00-0.00000000E+00-1.60538395E-01
13  2 1.99386284E+00-0.00000000E+00-0.00000000E+00 4.97522396E-01-2.87285875E-01
13  3-3.59615898E-01-2.87285875E-01-3.59615898E-01
 $END   
