 $CONTRL SCFTYP=ROHF MULT=1 RUNTYP=ENERGY  LOCAL=NONE
  UNITS=ANGS $END
 $SYSTEM TIMLIM=9999999 MWORDS=350 memddi=50 $END
 $BASIS GBASIS=N31 NGAUSS=6 NDFUNC=1 $END
 $GUESS  GUESS=HUCKEL $END
