 $CONTRL SCFTYP=UHF MULT=1 RUNTYP=COMP  LOCAL=NONE
  UNITS=ANGS $END
 $SYSTEM TIMLIM=9999999 MWORDS=350 memddi=50 $END
 $GUESS  GUESS=HUCKEL $END
 $MP2  OSPT=RMP $END
 $COMP
  rmethd=ccca-s4
  icnacr(5)=2
  icnbcr(5)=2
 $END
