! EFP-QM argon dimer, 6-31large
!
! ELECTRON-FRAGMENT DISPERSION ENERGY =     -0.0007260115
!
 $CONTRL RUNTYP=energy COORD=unique $END
 $contrl ispher=1 $end
 $SYSTEM MWORDS=100 $END
 $BASIS gbasis=n311 ngauss=6 diffsp=.t.
        diffs=.t. npfunc=2 ndfunc=3 nffunc=1 $END
 $EFRAG
 ISCRELEC=0 ISCRPOL=0 ISCRDISP=0 QMDISP=1 ISCRQMDS=1
 FRAGNAME=argon
A01AR    0.0000000000   0.00000000000   0.000000000
A02DUM   0.0000000000   1.00000000000   0.000000000
A03DUM   0.0000000000   0.00000000000   1.000000000
 $END
 $DATA

 C1
Ar  18.0  3.8000000000   0.00000000000   0.000000000
 $end
 $argon
argon 631large
 COORDINATES (BOHR)
A01AR      0.0000000000   0.0000000000   0.0000000000  39.9480000 18.0
A02DUM     0.0000000000   1.889725989    0.0000000000   0.0000000  0.0
A03DUM     0.0000000000   0.0000000000   1.889725989    0.0000000  0.0
 STOP
 MONOPOLES 
A01AR    -18.0000000000  18.00000
A02DUM     0.0000000000   0.00000
A03DUM     0.0000000000   0.00000
 STOP
 DIPOLES 
A01AR       0.0000000000    0.0000000000    0.0000000000
A02DUM      0.0000000000    0.0000000000    0.0000000000
A03DUM      0.0000000000    0.0000000000    0.0000000000
 STOP
 QUADRUPOLES 
A01AR      -8.6847461739   -8.6847461739   -8.6847461739    0.0000000000 >
            0.0000000000    0.0000000000
A02DUM      0.0000000000    0.0000000000    0.0000000000    0.0000000000 >
            0.0000000000    0.0000000000
A03DUM      0.0000000000    0.0000000000    0.0000000000    0.0000000000 >
            0.0000000000    0.0000000000
 STOP
 OCTUPOLES  
A01AR       0.0000000000    0.0000000000    0.0000000000    0.0000000000 >
            0.0000000000    0.0000000000    0.0000000000    0.0000000000 >
            0.0000000000    0.0000000000
A02DUM      0.0000000000    0.0000000000    0.0000000000    0.0000000000 >
            0.0000000000    0.0000000000    0.0000000000    0.0000000000 >
            0.0000000000    0.0000000000
A03DUM      0.0000000000    0.0000000000    0.0000000000    0.0000000000 >
            0.0000000000    0.0000000000    0.0000000000    0.0000000000 >
            0.0000000000    0.0000000000
 STOP
 POLARIZABLE POINTS
CT1   0.4418281785  -0.1871719026   0.5727995183
    2.5414723916    1.8750977183    3.0942037013   -0.3440214774 >
    1.0526942503   -0.4460515049   -0.3437976418    1.0530132770 >
   -0.4460203079
CT2  -0.5179507332  -0.5295126910  -0.0984281293
    2.8454316684    2.8958209387    1.7699706137    1.1408959518 >
    0.2120382511    0.2168006291    1.1409747508    0.2121300434 >
    0.2168450535
CT3  -0.3348175514   0.6517909723   0.1463232185
    2.1958704259    3.4967284316    1.8187451639   -0.9077735842 >
   -0.2037794848    0.3967094055   -0.9077431172   -0.2037990960 >
    0.3967681182
CT4   0.4109401061   0.0648936213  -0.6206946075
    2.4318852536    1.7468988702    3.3319983058    0.1109251523 >
   -1.0609123478   -0.1676920458    0.1109403645   -1.0612502056 >
   -0.1675269289
 STOP
 DYNAMIC POLARIZABLE POINTS
CT  1   0.4418281785  -0.1871719026   0.5727995183 -- FOR W= 0.002792I A.U.
    2.5414639953    1.8751878685    3.0942183222   -0.3439879526 >
    1.0527014515   -0.4459564671   -0.3439879526    1.0527014514 >
   -0.4459564672
CT  2  -0.5179507332  -0.5295126910  -0.0984281293
    2.8453661122    2.8957416178    1.7697624558    1.1408117690 >
    0.2120590690    0.2167927587    1.1408117689    0.2120590690 >
    0.2167927587
CT  3  -0.3348175514   0.6517909723   0.1463232185
    2.1957642694    3.4965832869    1.8185226297   -0.9077488850 >
   -0.2037842561    0.3967078126   -0.9077488850   -0.2037842561 >
    0.3967078126
CT  4   0.4109401061   0.0648936213  -0.6206946075
    2.4318992043    1.7469808081    3.3319901735    0.1109250686 >
   -1.0609762645   -0.1675441042    0.1109250687   -1.0609762644 >
   -0.1675441042
CT  1   0.4418281785  -0.1871719026   0.5727995183 -- FOR W= 0.015107I A.U.
    2.5403207625    1.8745432268    3.0926614496   -0.3437305378 >
    1.0519136889   -0.4456227467   -0.3437305379    1.0519136883 >
   -0.4456227467
CT  2  -0.5179507332  -0.5295126910  -0.0984281293
    2.8439954621    2.8943332702    1.7691967065    1.1399580710 >
    0.2119003799    0.2166305272    1.1399580709    0.2119003799 >
    0.2166305272
CT  3  -0.3348175514   0.6517909723   0.1463232185
    2.1948797323    3.4947253144    1.8179203919   -0.9070695939 >
   -0.2036317591    0.3964109461   -0.9070695937   -0.2036317592 >
    0.3964109461
CT  4   0.4109401061   0.0648936213  -0.6206946075
    2.4308379616    1.7464321069    3.3302553703    0.1108420606 >
   -1.0601823096   -0.1674187266    0.1108420607   -1.0601823091 >
   -0.1674187267
CT  1   0.4418281785  -0.1871719026   0.5727995183 -- FOR W= 0.039002I A.U.
    2.5336434981    1.8707726257    3.0835727664   -0.3422298728 >
    1.0473212255   -0.4436772390   -0.3422298732    1.0473212253 >
   -0.4436772391
CT  2  -0.5179507332  -0.5295126910  -0.0984281293
    2.8359924093    2.8861104518    1.7658860291    1.1349812218 >
    0.2109752614    0.2156847578    1.1349812219    0.2109752615 >
    0.2156847579
CT  3  -0.3348175514   0.6517909723   0.1463232185
    2.1897106003    3.4838812937    1.8143969958   -0.9031094934 >
   -0.2027427399    0.3946802882   -0.9031094933   -0.2027427401 >
    0.3946802883
CT  4   0.4109401061   0.0648936213  -0.6206946075
    2.4246386789    1.7432208155    3.3201293954    0.1103581445 >
   -1.0555537470   -0.1666878070    0.1103581445   -1.0555537468 >
   -0.1666878071
CT  1   0.4418281785  -0.1871719026   0.5727995183 -- FOR W= 0.077996I A.U.
    2.5104650861    1.8576117931    3.0520835953   -0.3370579532 >
    1.0314936729   -0.4369722047   -0.3370579534    1.0314936727 >
   -0.4369722047
CT  2  -0.5179507332  -0.5295126910  -0.0984281293
    2.8082447752    2.8576054131    1.7543102863    1.1178289152 >
    0.2077869158    0.2124252404    1.1178289153    0.2077869159 >
    0.2124252404
CT  3  -0.3348175514   0.6517909723   0.1463232185
    2.1717298449    3.4463424944    1.8020881351   -0.8894613285 >
   -0.1996788077    0.3887157161   -0.8894613284   -0.1996788078 >
    0.3887157161
CT  4   0.4109401061   0.0648936213  -0.6206946075
    2.4031075931    1.7319875988    3.2850652826    0.1086903664 >
   -1.0396017811   -0.1641687518    0.1086903665   -1.0396017809 >
   -0.1641687518
CT  1   0.4418281785  -0.1871719026   0.5727995183 -- FOR W= 0.138651I A.U.
    2.4468294952    1.8209053371    2.9661071232   -0.3231548618 >
    0.9889462391   -0.4189478130   -0.3231548619    0.9889462391 >
   -0.4189478131
CT  2  -0.5179507332  -0.5295126910  -0.0984281293
    2.7323262571    2.7796508492    1.7218648491    1.0717202935 >
    0.1992160441    0.2036630451    1.0717202933    0.1992160442 >
    0.2036630453
CT  3  -0.3348175514   0.6517909723   0.1463232185
    2.1220665309    3.3441034847    1.7676719395   -0.8527724976 >
   -0.1914423822    0.3726818260   -0.8527724973   -0.1914423822 >
    0.3726818261
CT  4   0.4109401061   0.0648936213  -0.6206946075
    2.3439003239    1.7004629361    3.1894786953    0.1042070659 >
   -0.9967199010   -0.1573970581    0.1042070660   -0.9967199011 >
   -0.1573970583
CT  1   0.4418281785  -0.1871719026   0.5727995183 -- FOR W= 0.233223I A.U.
    2.2957849942    1.7304609580    2.7647877012   -0.2918679658 >
    0.8931993951   -0.3783865275   -0.2918679658    0.8931993951 >
   -0.3783865275
CT  2  -0.5179507332  -0.5295126910  -0.0984281293
    2.5536408058    2.5963835710    1.6410092766    0.9679595109 >
    0.1799285371    0.1839449928    0.9679595108    0.1799285372 >
    0.1839449928
CT  3  -0.3348175514   0.6517909723   0.1463232185
    2.0024646177    3.1061875754    1.6823814603   -0.7702095917 >
   -0.1729074981    0.3365998762   -0.7702095916   -0.1729074982 >
    0.3365998761
CT  4   0.4109401061   0.0648936213  -0.6206946075
    2.2028211203    1.6216794335    2.9665330998    0.0941180466 >
   -0.9002204342   -0.1421583415    0.0941180466   -0.9002204342 >
   -0.1421583415
CT  1   0.4418281785  -0.1871719026   0.5727995183 -- FOR W= 0.385897I A.U.
    1.9848932582    1.5304027798    2.3619465074   -0.2346463319 >
    0.7180848406   -0.3042026569   -0.2346463319    0.7180848406 >
   -0.3042026570
CT  2  -0.5179507332  -0.5295126910  -0.0984281293
    2.1921956258    2.2265585375    1.4584883823    0.7781880002 >
    0.1446529808    0.1478819975    0.7781880002    0.1446529808 >
    0.1478819976
CT  3  -0.3348175514   0.6517909723   0.1463232185
    1.7490792653    2.6364138609    1.4917494190   -0.6192075755 >
   -0.1390084386    0.2706084103   -0.6192075752   -0.1390084386 >
    0.2706084103
CT  4   0.4109401061   0.0648936213  -0.6206946075
    1.9101552446    1.4429482157    2.5241390852    0.0756659071 >
   -0.7237293829   -0.1142877509    0.0756659072   -0.7237293828 >
   -0.1142877510
CT  1   0.4418281785  -0.1871719026   0.5727995183 -- FOR W= 0.649114I A.U.
    1.4581305594    1.1556584037    1.7090667494   -0.1561616474 >
    0.4778992741   -0.2024527197   -0.1561616473    0.4778992741 >
   -0.2024527197
CT  2  -0.5179507332  -0.5295126910  -0.0984281293
    1.5960942724    1.6189634511    1.1077979888    0.5178990830 >
    0.0962693412    0.0984183140    0.5178990830    0.0962693412 >
    0.0984183140
CT  3  -0.3348175514   0.6517909723   0.1463232185
    1.3011918111    1.8917300527    1.1299338486   -0.4120945523 >
   -0.0925127897    0.1800951024   -0.4120945522   -0.0925127898 >
    0.1800951024
CT  4   0.4109401061   0.0648936213  -0.6206946075
    1.4083909737    1.0974557091    1.8170090297    0.0503571167 >
   -0.4816558255   -0.0760606967    0.0503571167   -0.4816558255 >
   -0.0760606967
CT  1   0.4418281785  -0.1871719026   0.5727995183 -- FOR W= 1.153904I A.U.
    0.7980713227    0.6439175642    0.9259599765   -0.0795871766 >
    0.2435595074   -0.1031792417   -0.0795871766    0.2435595075 >
   -0.1031792417
CT  2  -0.5179507332  -0.5295126910  -0.0984281293
    0.8683839927    0.8800391808    0.6195256899    0.2639452546 >
    0.0490632955    0.0501585112    0.2639452546    0.0490632955 >
    0.0501585112
CT  3  -0.3348175514   0.6517909723   0.1463232185
    0.7180880996    1.0190536190    0.6308071448   -0.2100223868 >
   -0.0471487837    0.0917847689   -0.2100223868   -0.0471487837 >
    0.0917847689
CT  4   0.4109401061   0.0648936213  -0.6206946075
    0.7727217362    0.6142547872    0.9809723400    0.0256643088 >
   -0.2454740193   -0.0387640384    0.0256643087   -0.2454740194 >
   -0.0387640384
CT  1   0.4418281785  -0.1871719026   0.5727995183 -- FOR W= 2.307592I A.U.
    0.2780674310    0.2252492727    0.3218862988   -0.0272691898 >
    0.0834515146   -0.0353526088   -0.0272691898    0.0834515146 >
   -0.0353526088
CT  2  -0.5179507332  -0.5295126910  -0.0984281293
    0.3021588692    0.3061523207    0.2168918126    0.0904363435 >
    0.0168107021    0.0171859591    0.0904363435    0.0168107021 >
    0.0171859591
CT  3  -0.3348175514   0.6517909723   0.1463232185
    0.2506625427    0.3537832490    0.2207572109   -0.0719605917 >
   -0.0161547273    0.0314484869   -0.0719605917   -0.0161547273 >
    0.0314484869
CT  4   0.4109401061   0.0648936213  -0.6206946075
    0.2693818272    0.2150858276    0.3407353477    0.0087934380 >
   -0.0841074895   -0.0132818372    0.0087934380   -0.0841074895 >
   -0.0132818372
CT  1   0.4418281785  -0.1871719026   0.5727995183 -- FOR W= 5.957643I A.U.
    0.0506274027    0.0412788978    0.0583830858   -0.0048264870 >
    0.0147704296   -0.0062572048   -0.0048264870    0.0147704296 >
   -0.0062572048
CT  2  -0.5179507332  -0.5295126910  -0.0984281293
    0.0548914462    0.0555982638    0.0397996763    0.0160067034 >
    0.0029753959    0.0030418142    0.0160067034    0.0029753959 >
    0.0030418142
CT  3  -0.3348175514   0.6517909723   0.1463232185
    0.0457768979    0.0640286593    0.0404838292   -0.0127366035 >
   -0.0028592922    0.0055661981   -0.0127366035   -0.0028592922 >
    0.0055661981
CT  4   0.4109401061   0.0648936213  -0.6206946075
    0.0490901017    0.0394800276    0.0617192571    0.0015563871 >
   -0.0148865333   -0.0023508074    0.0015563871   -0.0148865333 >
   -0.0023508074
CT  1   0.4418281785  -0.1871719026   0.5727995183 -- FOR W=32.239080I A.U.
    0.0019486196    0.0016016143    0.0022365012   -0.0001791534 >
    0.0005482606   -0.0002322599   -0.0001791534    0.0005482606 >
   -0.0002322599
CT  2  -0.5179507332  -0.5295126910  -0.0984281293
    0.0021068958    0.0021331320    0.0015467074    0.0005941496 >
    0.0001104431    0.0001129085    0.0005941496    0.0001104431 >
    0.0001129085
CT  3  -0.3348175514   0.6517909723   0.1463232185
    0.0017685747    0.0024460582    0.0015721023   -0.0004727674 >
   -0.0001061335    0.0002066106   -0.0004727674   -0.0001061335 >
    0.0002066106
CT  4   0.4109401061   0.0648936213  -0.6206946075
    0.0018915568    0.0015348424    0.0023603359    0.0000577712 >
   -0.0005525703   -0.0000872592    0.0000577712   -0.0005525703 >
   -0.0000872592
 STOP
 PROJECTION BASIS SET
A01AR        0.0000000000   0.0000000000   0.0000000000    8.0
   S          6
     1    118022.4000000000     3.39003273
     2     17683.5000000000     6.32797408
     3      4027.8000000000    10.78097292
     4      1145.4000000000    16.72730430
     5       377.1600000000    22.50937818
     6       138.1600000000    16.55637008
   S          3
     7       138.1600000000     4.13369733
     8        54.9890000000     8.96522821
     9        23.1710000000     2.13737894
   S          1
    10         7.3779000000     3.19050673
   S          1
    11         2.9237000000     1.59352800
   S          1
    12         0.6504000000     0.51617325
   S          1
    13         0.2328000000     0.23886214
   P          5
    14       663.0600000000    14.78132392
    15       157.0900000000    19.15632239
    16        50.2310000000    20.62880222
    17        18.6350000000    16.23612059
    18         7.4465000000    12.06094185
   P          2
    19         7.4465000000   -21.29479287
    20         3.0957000000     9.55452902
   P          1
    21         1.1065000000     1.61763063
   P          1
    22         0.4156000000     0.47564673
   P          1
    23         0.1454000000     0.12798103
   L          1
    24         0.0600000000     0.08640195     0.04232814
   D          1
    25         3.4000000000    14.01191716
   D          1
    26         0.8500000000     1.23849021
   D          1
    27         0.2125000000     0.10946810
  
 STOP
 MULTIPLICITY    1
 STOP
 PROJECTION WAVEFUNCTION    4  43
 1  1 1.92600162E-02 5.63511133E-02-1.18833692E-01-2.07514574E-01 3.28800215E-01
 1  2 2.74606185E-01-1.45811117E-01 6.17700398E-02-1.89033977E-01-2.08432328E-02
 1  3 8.82982962E-03-2.70218023E-02 1.64593162E-01-6.97266873E-02 2.13383592E-01
 1  4 2.84606087E-01-1.20567826E-01 3.68972007E-01 1.44455182E-01-6.11956244E-02
 1  5 1.87276101E-01 6.34442660E-03 4.30313847E-03-1.82294081E-03 5.57871988E-03
 1  6 0.00000000E+00 0.00000000E+00 0.00000000E+00 0.00000000E+00 0.00000000E+00
 1  7 0.00000000E+00 0.00000000E+00 0.00000000E+00 0.00000000E+00 0.00000000E+00
 1  8 0.00000000E+00 0.00000000E+00 0.00000000E+00 0.00000000E+00 0.00000000E+00
 1  9 0.00000000E+00 0.00000000E+00 0.00000000E+00
 2  1 1.92600162E-02 5.63511133E-02-1.18833692E-01-2.07514574E-01 3.28800215E-01
 2  2 2.74606185E-01 1.70932907E-01 1.74748558E-01 3.24830243E-02 2.44343123E-02
 2  3 2.49797474E-02 4.64334443E-03-1.92950909E-01-1.97258057E-01-3.66671883E-02
 2  4-3.33640856E-01-3.41088555E-01-6.34030288E-02-1.69343358E-01-1.73123526E-01
 2  5-3.21809564E-02 6.34442660E-03-5.04452598E-03-5.15713244E-03-9.58630276E-04
 2  6 0.00000000E+00 0.00000000E+00 0.00000000E+00 0.00000000E+00 0.00000000E+00
 2  7 0.00000000E+00 0.00000000E+00 0.00000000E+00 0.00000000E+00 0.00000000E+00
 2  8 0.00000000E+00 0.00000000E+00 0.00000000E+00 0.00000000E+00 0.00000000E+00
 2  9 0.00000000E+00 0.00000000E+00 0.00000000E+00
 3  1 1.92600162E-02 5.63511133E-02-1.18833692E-01-2.07514574E-01 3.28800215E-01
 3  2 2.74606185E-01 1.10495716E-01-2.15102554E-01-4.82892512E-02 1.57950092E-02
 3  3-3.07482221E-02-6.90279401E-03-1.24728757E-01 2.42810084E-01 5.45094278E-02
 3  4-2.15674594E-01 4.19854793E-01 9.42549178E-02-1.09468189E-01 2.13102260E-01
 3  5 4.78401971E-02 6.34442660E-03-3.26091987E-03 6.34804873E-03 1.42509940E-03
 3  6 0.00000000E+00 0.00000000E+00 0.00000000E+00 0.00000000E+00 0.00000000E+00
 3  7 0.00000000E+00 0.00000000E+00 0.00000000E+00 0.00000000E+00 0.00000000E+00
 3  8 0.00000000E+00 0.00000000E+00 0.00000000E+00 0.00000000E+00 0.00000000E+00
 3  9 0.00000000E+00 0.00000000E+00 0.00000000E+00
 4  1 1.92600162E-02 5.63511133E-02-1.18833692E-01-2.07514574E-01 3.28800215E-01
 4  2 2.74606185E-01-1.35617506E-01-2.14160433E-02 2.04840203E-01-1.93860888E-02
 4  3-3.06135489E-03 2.92812519E-02 1.53086504E-01 2.41746607E-02-2.31225832E-01
 4  4 2.64709363E-01 4.18015884E-02-3.99823896E-01 1.34356365E-01 2.12168900E-02
 4  5-2.02935342E-01 6.34442660E-03 4.00230738E-03 6.32024512E-04-6.04518900E-03
 4  6 0.00000000E+00 0.00000000E+00 0.00000000E+00 0.00000000E+00 0.00000000E+00
 4  7 0.00000000E+00 0.00000000E+00 0.00000000E+00 0.00000000E+00 0.00000000E+00
 4  8 0.00000000E+00 0.00000000E+00 0.00000000E+00 0.00000000E+00 0.00000000E+00
 4  9 0.00000000E+00 0.00000000E+00 0.00000000E+00
 FOCK MATRIX ELEMENTS
   -0.7628626568   -0.1714994140   -0.7628626568   -0.1714994141 >
   -0.1714994141   -0.7628626568   -0.1714994141   -0.1714994141 >
   -0.1714994140   -0.7628626568
 LMO CENTROIDS
CT1   0.4418281785  -0.1871719026   0.5727995183
CT2  -0.5179507332  -0.5295126910  -0.0984281293
CT3  -0.3348175514   0.6517909723   0.1463232185
CT4   0.4109401061   0.0648936213  -0.6206946075
 STOP
 $END
