 $CONTRL SCFTYP=RHF MULT=1 RUNTYP=optimize  LOCAL=NONE
  UNITS=ANGS $END
 $SYSTEM TIMLIM=9999999 MEMORY=60000000 $END
 $BASIS  GBASIS=N31  NGAUSS=6 ndfunc=1 $END
 $GUESS  GUESS=HUCKEL $END
