!
! This tests direct NEO scf for an open-shell electronic case ...
! H2O with a +1 charge
! 1 proton is quantum mechanical using NMOMTD=RONHF 
! conventional proton integrals / conventional electron integrals
!
! FINAL ENERGY IS      -75.4884497844 AFTER   8 ITERATIONS
!
 $CONTRL RUNTYP=ENERGY SCFTYP=ROHF ICHARG=1 MULT=2 $END
 $SYSTEM TIMLIM=50 MEMORY=1000000 $END
 $SCF    SOSCF=.F. DIIS=.T. ETHRSH=1.5
         DIRSCF=.F. $END
 $NEO    NEOSCF=RONHF BASNUC=DZSPNB NUNIQN=1 
         IUNIQN(1)=3 NUMULT=2 
         DIRNUC=.F. $END
 $BASIS  GBASIS=N31 NGAUSS=6 $END
 $GUESS  GUESS=MOREAD NORB=13 $END
 $DATA
    ---- H2O+ ENERGY ----
 C1
 O   8.0   0.0000000000  0.0000000000  -0.1145749509
 H   1.0   0.6441603727  0.0000000000   0.5687174254
 H   1.0  -0.9441603727  0.0000000000   0.8687174254
 $END
--- ROHF ORBITALS --- GENERATED AT Fri May 16 11:17:42 2003
    ---- H2O ENERGY ----                                                        
E(ROHF)=      -75.5136184049, E(NUC)=    7.9410402151,    9 ITERS
 $VEC
 1  1 9.96360296E-01 2.02129433E-02 4.29592619E-04 0.00000000E+00 2.22838078E-03
 1  2-8.42497124E-03-6.20037567E-04 0.00000000E+00-1.96548610E-03 7.14923384E-05
 1  3 2.54746576E-03 4.77960595E-04 6.63520079E-04
 2  1-2.10747050E-01 4.96025760E-01 7.26719092E-02 0.00000000E+00 1.50294109E-01
 2  2 4.66776056E-01 1.96158914E-02 0.00000000E+00 9.60582340E-02 1.80574538E-01
 2  3-3.15368184E-02 5.42974112E-02 2.67949497E-03
 3  1 6.72636723E-02-1.57161014E-01 5.05712058E-01 0.00000000E+00 2.77176217E-01
 3  2-2.45180320E-01 2.79135537E-01 0.00000000E+00 1.16258067E-01 2.76750562E-01
 3  3 7.90083966E-02-9.70818715E-02-5.74361474E-02
 4  1 6.12443190E-02-1.83354450E-01-2.78418662E-01 0.00000000E+00 5.06385760E-01
 4  2-1.45380257E-01-1.92815979E-01 0.00000000E+00 3.43226776E-01 3.39768634E-02
 4  3 1.44587746E-02 1.90111622E-01 1.26457610E-01
 5  1 0.00000000E+00 0.00000000E+00 0.00000000E+00 7.28897997E-01 0.00000000E+00
 5  2 0.00000000E+00 0.00000000E+00 4.10548201E-01 0.00000000E+00 0.00000000E+00
 5  3 0.00000000E+00 0.00000000E+00 0.00000000E+00
 6  1 5.30234292E-02-1.24957871E-01 2.41465750E-01 0.00000000E+00-2.72312853E-01
 6  2-4.20977058E-01 2.53386076E-01 0.00000000E+00-2.99301506E-01 3.95012672E-04
 6  3 1.66648942E-01 3.18593677E-01 8.92230935E-01
 7  1 5.34783584E-02-1.03009834E-01-2.88752199E-01 0.00000000E+00-1.62049865E-01
 7  2-7.73704998E-01-4.78864900E-01 0.00000000E+00-3.10075273E-01 1.70560242E-01
 7  3 1.58029294E+00-1.16017880E-01-3.57395093E-01
 8  1-2.92339736E-03 1.79715923E-01-1.13353485E-01 0.00000000E+00 3.03301150E-01
 8  2-4.89298125E-01 1.12824967E-01 0.00000000E+00-4.55007621E-01 2.60717927E-01
 8  3-2.78924358E-01-1.12077203E+00 1.40206704E+00
 9  1 0.00000000E+00 0.00000000E+00 0.00000000E+00-8.97080879E-01 0.00000000E+00
 9  2 0.00000000E+00 0.00000000E+00 1.08050755E+00 0.00000000E+00 0.00000000E+00
 9  3 0.00000000E+00 0.00000000E+00 0.00000000E+00
10  1 3.57456893E-02-1.54095170E-01 4.88316307E-02 0.00000000E+00-5.11317997E-01
10  2 6.18087086E-02-5.14405086E-01 0.00000000E+00 1.08802327E-01 1.27114212E+00
10  3-7.86720490E-01-6.55264263E-04-1.36326839E-02
11  1-6.09705265E-02 6.37770660E-01-3.76849704E-01 0.00000000E+00-6.45791428E-01
11  2-4.50716851E-01 6.73460502E-01 0.00000000E+00 9.46292640E-01-3.06456887E-01
11  3-2.68557942E-01-3.02571932E-01 3.93419026E-01
12  1 2.83455857E-02-3.69921802E-01-8.80218839E-01 0.00000000E+00 1.85033035E-01
12  2 5.71205618E-01 1.18448227E+00 0.00000000E+00-3.27164966E-01 3.89361368E-01
12  3-8.88217640E-01 3.31482061E-01 2.66914256E-01
13  1 4.86970198E-02-1.48306466E+00 1.60330016E-02 0.00000000E+00-3.63439481E-01
13  2 2.31889266E+00 3.28180830E-01 0.00000000E+00 1.03909859E+00-5.38463988E-01
13  3-8.50492212E-01-5.36625406E-01-2.17063766E-02
 $END
