! EXAM48.
!    Harmonically Constrained RHF geometry optimization using GAMESS.
!
!    With RHF/STO-3G the C-C bond distance in ethane is 1.54 aangstrom.
!    This test adds a harmonic constraint to the distance between the two
!    C's to 2.0 Aangstrom with a force-constant of 500 kcal mol^-1
!    aangstrom^-2 which in the 7th iteration yields
!
!
!    FINAL E= -78.2602388622, RMS grad= 0.000008, D= 1.85
!
 $BASIS GBASIS=STO NGAUSS=3 $END
 $CONTRL SCFTYP=RHF RUNTYP=OPTIMIZE $END
 $STATPT OPTTOL=0.0001 NSTEP=20
  IHMCON(1)=1,1,2
  SHMCON(1)=2.0
  FHMCON(1)=500.0
 $END
 $DATA 
Title
C1
 C           6.0  -6.2363126322   1.7529676581   0.1646990386
 C           6.0  -4.6987919301   1.7412484162   0.1483538561
 H           1.0  -6.6074323757   2.4534906165   0.9070325314
 H           1.0  -6.6259520527   0.7677973685   0.4036239104
 H           1.0  -6.6288956281   2.0465960900  -0.8044130853
 H           1.0  -4.3062173272   1.4476505362   1.1174725498
 H           1.0  -4.3091518057   2.7264118580  -0.0906161054
 H           1.0  -4.3276762483   1.0407674565  -0.5940226956
 $END
