!
! C2v NEO calculation on water - hydrogen nuclei
! are treated high-spin with built in 2s2p
! basis set. Nuclear molecular orbitals are
! symmetry adapted
!
!  FINAL ENERGY IS      -75.9377419106 AFTER  11 ITERATIONS
!
 $CONTRL SCFTYP=RHF RUNTYP=ENERGY  $END
 $SYSTEM TIMLIM=50 MEMORY=6000000 $END
 $SCF    SOSCF=.F. DIIS=.T. ETHRSH=1.5 
         DIRSCF=.f. FDIFF=.f. $END
 $NEO    NEOSCF=RONHF BASNUC=READIN NUNIQN=1 
         NUMULT=3
         IUNIQN(1)=2 DIRNUC=.F. SYMNUC=.T. $END
 $BASIS  GBASIS=N31 NGAUSS=6 NPFUNC=1 NDFUNC=1 $END
 $GUESS  GUESS=MOREAD NORB=25 $END
 $DATA
  -------- WATER --------
 CnV 2

 O           8.0    .0000000000    .0000000000    .2572210279
 H           1.0    .0000000000   -.7580130359   -.3786105139
 $END
--- RHF ORBITALS --- GENERATED AT Sat Sep 20 14:42:55 2003
  -------- WATER --------                                                       
E(RHF)=      -76.0188375220, E(NUC)=    8.9068062591,   10 ITERS
 $VEC
 1  1 9.94714670E-01 2.09967248E-02 0.00000000E+00 0.00000000E+00-1.47662322E-03
 1  2 4.03870221E-03 0.00000000E+00 0.00000000E+00 2.86954424E-04-3.83144092E-03
 1  3-3.83464703E-03-3.79383090E-03 0.00000000E+00 0.00000000E+00 0.00000000E+00
 1  4 1.35855826E-04-2.76414051E-04 0.00000000E+00 2.65302433E-04-2.04140904E-04
 1  5 1.35855826E-04-2.76414051E-04 0.00000000E+00-2.65302433E-04-2.04140904E-04
 2  1-2.10688263E-01 4.76384999E-01 0.00000000E+00 0.00000000E+00-8.15794800E-02
 2  2 4.31813132E-01 0.00000000E+00 0.00000000E+00-3.47940394E-02 1.34084506E-03
 2  3 6.86480051E-03 9.34054789E-03 0.00000000E+00 0.00000000E+00 0.00000000E+00
 2  4 1.36937255E-01 1.47669466E-02 0.00000000E+00-2.00236031E-02 1.36790769E-02
 2  5 1.36937255E-01 1.47669466E-02 0.00000000E+00 2.00236031E-02 1.36790769E-02
 3  1 0.00000000E+00 0.00000000E+00 0.00000000E+00 5.00500797E-01 0.00000000E+00
 3  2 0.00000000E+00 0.00000000E+00 2.88427190E-01 0.00000000E+00 0.00000000E+00
 3  3 0.00000000E+00 0.00000000E+00 0.00000000E+00 0.00000000E+00-3.50946561E-02
 3  4 2.33709803E-01 1.43783287E-01 0.00000000E+00-9.82136068E-03 1.86802798E-02
 3  5-2.33709803E-01-1.43783287E-01 0.00000000E+00-9.82136068E-03-1.86802798E-02
 4  1-7.45568778E-02 1.66489913E-01 0.00000000E+00 0.00000000E+00 5.44734576E-01
 4  2 3.40034340E-01 0.00000000E+00 0.00000000E+00 3.81552892E-01 9.43568883E-03
 4  3-3.63794979E-04-3.81310352E-02 0.00000000E+00 0.00000000E+00 0.00000000E+00
 4  4-1.50567609E-01-1.01472581E-01 0.00000000E+00 1.54861835E-02 4.61976216E-03
 4  5-1.50567609E-01-1.01472581E-01 0.00000000E+00-1.54861835E-02 4.61976216E-03
 5  1 0.00000000E+00 0.00000000E+00 6.40417067E-01 0.00000000E+00 0.00000000E+00
 5  2 0.00000000E+00 4.99954323E-01 0.00000000E+00 0.00000000E+00 0.00000000E+00
 5  3 0.00000000E+00 0.00000000E+00 0.00000000E+00-2.77246524E-02 0.00000000E+00
 5  4 0.00000000E+00 0.00000000E+00 1.95486204E-02 0.00000000E+00 0.00000000E+00
 5  5 0.00000000E+00 0.00000000E+00 1.95486204E-02 0.00000000E+00 0.00000000E+00
 6  1-9.76319523E-02 5.76364839E-02 0.00000000E+00 0.00000000E+00-2.34408112E-01
 6  2 1.33996910E+00 0.00000000E+00 0.00000000E+00-5.35147583E-01-6.91142900E-02
 6  3-5.17302590E-02-3.68789078E-02 0.00000000E+00 0.00000000E+00 0.00000000E+00
 6  4-5.82131830E-02-1.01081715E+00 0.00000000E+00 3.64840884E-03-1.81997411E-03
 6  5-5.82131830E-02-1.01081715E+00 0.00000000E+00-3.64840884E-03-1.81997411E-03
 7  1 0.00000000E+00 0.00000000E+00 0.00000000E+00-3.40452709E-01 0.00000000E+00
 7  2 0.00000000E+00 0.00000000E+00-8.23590187E-01 0.00000000E+00 0.00000000E+00
 7  3 0.00000000E+00 0.00000000E+00 0.00000000E+00 0.00000000E+00 3.12578723E-02
 7  4 6.51282323E-02 1.35419251E+00 0.00000000E+00-1.19147508E-02 6.38675316E-03
 7  5-6.51282323E-02-1.35419251E+00 0.00000000E+00-1.19147508E-02-6.38675316E-03
 8  1 0.00000000E+00 0.00000000E+00 0.00000000E+00-1.52511081E-01 0.00000000E+00
 8  2 0.00000000E+00 0.00000000E+00-2.68352377E-01 0.00000000E+00 0.00000000E+00
 8  3 0.00000000E+00 0.00000000E+00 0.00000000E+00 0.00000000E+00-2.63623240E-01
 8  4 7.78458586E-01-7.12641184E-01 0.00000000E+00 4.72321470E-02-9.68710094E-02
 8  5-7.78458586E-01 7.12641184E-01 0.00000000E+00 4.72321470E-02 9.68710094E-02
 9  1 4.03330786E-02-2.00260290E-01 0.00000000E+00 0.00000000E+00 5.88718133E-01
 9  2 3.88056345E-01 0.00000000E+00 0.00000000E+00-4.50892976E-01-1.62387886E-01
 9  3 2.36837619E-01 8.43361515E-02 0.00000000E+00 0.00000000E+00 0.00000000E+00
 9  4 6.13986974E-01-6.03790252E-01 0.00000000E+00 1.81647397E-01-8.04558240E-02
 9  5 6.13986974E-01-6.03790252E-01 0.00000000E+00-1.81647397E-01-8.04558240E-02
10  1-1.24639344E-02-9.87129728E-01 0.00000000E+00 0.00000000E+00-5.38575263E-01
10  2 1.84524770E+00 0.00000000E+00 0.00000000E+00 7.11616194E-01-3.82346437E-01
10  3-2.86385008E-01-3.55970195E-01 0.00000000E+00 0.00000000E+00 0.00000000E+00
10  4 3.74164528E-01-3.93523277E-01 0.00000000E+00-9.56864304E-03 3.94715897E-02
10  5 3.74164528E-01-3.93523277E-01 0.00000000E+00 9.56864304E-03 3.94715897E-02
11  1 0.00000000E+00 0.00000000E+00-9.62289428E-01 0.00000000E+00 0.00000000E+00
11  2 0.00000000E+00 1.03582378E+00 0.00000000E+00 0.00000000E+00 0.00000000E+00
11  3 0.00000000E+00 0.00000000E+00 0.00000000E+00-1.56326636E-02 0.00000000E+00
11  4 0.00000000E+00 0.00000000E+00 9.88362715E-04 0.00000000E+00 0.00000000E+00
11  5 0.00000000E+00 0.00000000E+00 9.88362715E-04 0.00000000E+00 0.00000000E+00
12  1 0.00000000E+00 0.00000000E+00 0.00000000E+00-8.99388859E-01 0.00000000E+00
12  2 0.00000000E+00 0.00000000E+00 1.70357370E+00 0.00000000E+00 0.00000000E+00
12  3 0.00000000E+00 0.00000000E+00 0.00000000E+00 0.00000000E+00-1.20296748E-01
12  4-1.07003269E-01-8.97759953E-01 0.00000000E+00 1.57890079E-01-1.23802413E-01
12  5 1.07003269E-01 8.97759953E-01 0.00000000E+00 1.57890079E-01 1.23802413E-01
13  1-8.30262110E-02-1.28874629E+00 0.00000000E+00 0.00000000E+00 4.44422913E-01
13  2 3.27939835E+00 0.00000000E+00 0.00000000E+00-1.12723521E+00-2.34781891E-01
13  3-6.13901037E-01-3.31194916E-01 0.00000000E+00 0.00000000E+00 0.00000000E+00
13  4-4.10195950E-01-6.72075582E-01 0.00000000E+00-2.65046878E-02-1.22743272E-01
13  5-4.10195950E-01-6.72075582E-01 0.00000000E+00 2.65046878E-02-1.22743272E-01
14  1-2.79528674E-02-2.96757382E-01 0.00000000E+00 0.00000000E+00 7.42263781E-02
14  2 8.34385573E-01 0.00000000E+00 0.00000000E+00-5.20729869E-01 2.02572206E-01
14  3 2.80082928E-01-7.60001246E-01 0.00000000E+00 0.00000000E+00 0.00000000E+00
14  4-2.34068809E-01-1.36021810E-01 0.00000000E+00 2.09861716E-01 2.53031436E-01
14  5-2.34068809E-01-1.36021810E-01 0.00000000E+00-2.09861716E-01 2.53031436E-01
15  1 0.00000000E+00 0.00000000E+00 0.00000000E+00 0.00000000E+00 0.00000000E+00
15  2 0.00000000E+00 0.00000000E+00 0.00000000E+00 0.00000000E+00 0.00000000E+00
15  3 0.00000000E+00 0.00000000E+00 6.81443490E-01 0.00000000E+00 0.00000000E+00
15  4 0.00000000E+00 0.00000000E+00 3.59936122E-01 0.00000000E+00 0.00000000E+00
15  5 0.00000000E+00 0.00000000E+00-3.59936122E-01 0.00000000E+00 0.00000000E+00
16  1 0.00000000E+00 0.00000000E+00 8.22455035E-03 0.00000000E+00 0.00000000E+00
16  2 0.00000000E+00 2.08031811E-01 0.00000000E+00 0.00000000E+00 0.00000000E+00
16  3 0.00000000E+00 0.00000000E+00 0.00000000E+00 7.68812979E-01 0.00000000E+00
16  4 0.00000000E+00 0.00000000E+00-3.16423777E-01 0.00000000E+00 0.00000000E+00
16  5 0.00000000E+00 0.00000000E+00-3.16423777E-01 0.00000000E+00 0.00000000E+00
17  1-4.55211194E-02-5.37896144E-01 0.00000000E+00 0.00000000E+00 2.43156640E-01
17  2 1.27695461E+00 0.00000000E+00 0.00000000E+00-6.13493375E-01-1.05581193E+00
17  3 4.98665844E-01 3.06847486E-02 0.00000000E+00 0.00000000E+00 0.00000000E+00
17  4-5.90855173E-01-7.25844095E-02 0.00000000E+00-1.84950057E-01 1.42254328E-01
17  5-5.90855173E-01-7.25844095E-02 0.00000000E+00 1.84950057E-01 1.42254328E-01
18  1 0.00000000E+00 0.00000000E+00 0.00000000E+00-2.44138919E-02 0.00000000E+00
18  2 0.00000000E+00 0.00000000E+00-3.37955930E-01 0.00000000E+00 0.00000000E+00
18  3 0.00000000E+00 0.00000000E+00 0.00000000E+00 0.00000000E+00-2.79880676E-01
18  4-1.28907348E-02 1.10521481E-01 0.00000000E+00 4.29966093E-01 5.93204005E-01
18  5 1.28907348E-02-1.10521481E-01 0.00000000E+00 4.29966093E-01-5.93204005E-01
19  1 0.00000000E+00 0.00000000E+00 0.00000000E+00 3.54629071E-01 0.00000000E+00
19  2 0.00000000E+00 0.00000000E+00-4.95460994E-01 0.00000000E+00 0.00000000E+00
19  3 0.00000000E+00 0.00000000E+00 0.00000000E+00 0.00000000E+00 7.17894258E-01
19  4 5.05137023E-01-1.96331468E-01 0.00000000E+00 4.27080534E-01-1.27838566E-01
19  5-5.05137023E-01 1.96331468E-01 0.00000000E+00 4.27080534E-01 1.27838566E-01
20  1 0.00000000E+00 0.00000000E+00 0.00000000E+00 0.00000000E+00 0.00000000E+00
20  2 0.00000000E+00 0.00000000E+00 0.00000000E+00 0.00000000E+00 0.00000000E+00
20  3 0.00000000E+00 0.00000000E+00 8.55419979E-01 0.00000000E+00 0.00000000E+00
20  4 0.00000000E+00 0.00000000E+00-6.89291962E-01 0.00000000E+00 0.00000000E+00
20  5 0.00000000E+00 0.00000000E+00 6.89291962E-01 0.00000000E+00 0.00000000E+00
21  1 0.00000000E+00 0.00000000E+00 1.72336456E-03 0.00000000E+00 0.00000000E+00
21  2 0.00000000E+00-4.00534621E-01 0.00000000E+00 0.00000000E+00 0.00000000E+00
21  3 0.00000000E+00 0.00000000E+00 0.00000000E+00 7.47455974E-01 0.00000000E+00
21  4 0.00000000E+00 0.00000000E+00 7.48487569E-01 0.00000000E+00 0.00000000E+00
21  5 0.00000000E+00 0.00000000E+00 7.48487569E-01 0.00000000E+00 0.00000000E+00
22  1 1.75987783E-02-1.99512147E-01 0.00000000E+00 0.00000000E+00 1.15692140E-01
22  2 1.10761295E-01 0.00000000E+00 0.00000000E+00-4.10558105E-01-2.71785013E-02
22  3-7.90557658E-01 8.80875627E-01 0.00000000E+00 0.00000000E+00 0.00000000E+00
22  4-6.88488339E-02-1.04198446E-02 0.00000000E+00 3.75856956E-01 6.86289263E-01
22  5-6.88488339E-02-1.04198446E-02 0.00000000E+00-3.75856956E-01 6.86289263E-01
23  1-2.26769158E-01 1.16121036E-01 0.00000000E+00 0.00000000E+00-4.35573244E-01
23  2 2.66171437E+00 0.00000000E+00 0.00000000E+00-9.22893962E-01-1.15154673E+00
23  3-5.19358227E-02-8.81846584E-02 0.00000000E+00 0.00000000E+00 0.00000000E+00
23  4-8.01923733E-01-5.31499339E-01 0.00000000E+00 7.91140754E-01-4.37860834E-01
23  5-8.01923733E-01-5.31499339E-01 0.00000000E+00-7.91140754E-01-4.37860834E-01
24  1 0.00000000E+00 0.00000000E+00 0.00000000E+00-6.23205723E-01 0.00000000E+00
24  2 0.00000000E+00 0.00000000E+00-1.24682653E+00 0.00000000E+00 0.00000000E+00
24  3 0.00000000E+00 0.00000000E+00 0.00000000E+00 0.00000000E+00 1.47352191E+00
24  4 1.11253531E+00 4.86046271E-01 0.00000000E+00-7.48374930E-01 7.32891466E-01
24  5-1.11253531E+00-4.86046271E-01 0.00000000E+00-7.48374930E-01-7.32891466E-01
25  1-4.06001037E-01 3.01741575E-01 0.00000000E+00 0.00000000E+00 4.07127839E-01
25  2 2.59196403E+00 0.00000000E+00 0.00000000E+00 1.04483443E-01-1.17324616E+00
25  3-1.81590512E+00-1.62776926E+00 0.00000000E+00 0.00000000E+00 0.00000000E+00
25  4 5.68084584E-01-2.73836879E-01 0.00000000E+00-4.34586336E-01 3.63022971E-01
25  5 5.68084584E-01-2.73836879E-01 0.00000000E+00 4.34586336E-01 3.63022971E-01
 $END
