!   do SCF calculation on (gly)5, and set up to elongate it.
!
!   the FINAL E= -1060.2646070873, 17 iters
!   there are 8 atoms in region A, out of 40 atoms total
!   the localization results are
!       TOTAL <A|B>:    1.4466156830      TOTAL <B|A>:    0.4649193853
!        OCC  <A|B>:    0.0282708035       OCC  <B|A>:    0.4186564519
!        VAC  <A|B>:    1.4183448794       VAC  <B|A>:    0.0462629334
!   the worst localization results are
!        I         <A|B>           <B|A> 
!       12  0.008227552777  0.000000000000
!       80  0.000000000000  0.397615835541
!       89  1.382642322487  0.000000000000
!      124  0.000000000000  0.024662764305
!
 $CONTRL SCFTYP=RHF RUNTYP=ENERGY coord=zmt nzvar=0 NPRINT=-5 $END
 $SYSTEM mwords=5 $END
 $ELG    NELONG=2 NATM=  8 NTMLB=1  $END
 $SCF    CONV=1.0d-8  $END
 $BASIS  GBASIS=STO NGAUSS=3 $END
 $DATA
 polyglycine n=  5  ( C5)
C1
 C
 C   1  Rcc
 H   1  Rch   2  AAA
 N   2  Rcn   1  BET   3    Psi
 H   1  Rch   2  AAA   4    Gfl
 H   1  Rch   2  AAA   4    Gf2
 H   4  Rhn   2  HNC   1    xyz
 O   2  Rco   4  OCN   7    Omg
 C   4  Rc2   2  CNC   1    Omg
 H   9  Rch   4  AAA   2    Gma
 H   9  Rch   4  AAA   2    Gm2
 C   9  Rcc   4  CCN   2    Phi
 N  12  Rcn   9  BET   4    Psi
 H  13  Rhn  12  HNC   9    xyz
 O  12  Rco  13  OCN  14    Omg
 C  13  Rc2  12  CNC   9    Omg
 H  16  Rch  13  AAA  12    Gma
 H  16  Rch  13  AAA  12    Gm2
 C  16  Rcc  13  CCN  12    Phi
 N  19  Rcn  16  BET  13    Psi
 H  20  Rhn  19  HNC  16    xyz
 O  19  Rco  20  OCN  21    Omg
 C  20  Rc2  19  CNC  16    Omg
 H  23  Rch  20  AAA  19    Gma
 H  23  Rch  20  AAA  19    Gm2
 C  23  Rcc  20  CCN  19    Phi
 N  26  Rcn  23  BET  20    Psi
 H  27  Rhn  26  HNC  23    xyz
 O  26  Rco  27  OCN  28    Omg
 C  27  Rc2  26  CNC  23    Omg
 H  30  Rch  27  AAA  26    Gma
 H  30  Rch  27  AAA  26    Gm2
 C  30  Rcc  27  CCN  26    Phi
 N  33  Rcn  30  BET  27    Psi
 H  34  Rhn  33  HNC  30    xyz
 O  33  Rco  34  OCN  35    Omg
 C  34  Rc2  33  CNC  30    Omg
 H  37  Rch  34  AAA  33    Gma
 H  37  Rch  34  AAA  33    Gm2
 H  37  Rch  34  CCN  33    Phi

Rc2 =   1.4580
Rcc =   1.5500
Rcn =   1.3580
Rco =   1.2450
Rhn =   1.0270
Rch =   1.0000
CCN = 107.0000
BET = 115.1000
CNC = 123.1000
OCN = 125.5000
HNC = 121.0000
AAA = 109.5000
Phi = 180.0000
Psi = 180.0000
Omg = 180.0000
Gma = 300.0000
Gm2 =  60.0000
Gfl = 300.0000
Gf2 =  60.0000
xyz =   0.0000
 $END
