 $CONTRL  SCFTYP=UHF  RUNTYP=ENERGY  ICHARG=0
   MAXIT=175  COORD=ZMT  UNITS=ANGS  NZVAR=0
   MULT= 5 $END
 $ELG NELONG=2  NATM=8 NASPIN=1 $END
 $SYSTEM  MEMORY=50000000  $END
 $BASIS  GBASIS=PM3  $END
 $DATA
  benzyl ----  4 units
  C1
  C
  C    1     1.31800
  H    1     1.08130    2   121.97410
  H    1     1.08070    2   121.98310    3   180.00000
  H    2     1.08460    1   119.61500    3   180.00000
  C    2     1.46490    1   124.23730    4   180.00000
  H    6     1.07970    2   120.55780    1     0.00000
  H    6     1.07920    2   121.06000    1   180.00000
  C    1     2.66000    2    90.00000    6   -90.00000
  C    9     1.31800    1    90.00000    2     0.00000
  H    9     1.08130   10   121.97410    1   -90.00000
  H    9     1.08070   10   121.98310   11   180.00000
  H   10     1.08460    9   119.61500   11   180.00000
  C   10     1.46490    9   124.23730   12   180.00000
  H   14     1.07970   10   120.55780    9     0.00000
  H   14     1.07920   10   121.06000    9   180.00000
  C    9     2.66000   10    90.00000   14   -90.00000
  C   17     1.31800    9    90.00000   10     0.00000
  H   17     1.08130   18   121.97410    9   -90.00000
  H   17     1.08070   18   121.98310   19   180.00000
  H   18     1.08460   17   119.61500   19   180.00000
  C   18     1.46490   17   124.23730   20   180.00000
  H   22     1.07970   18   120.55780   17     0.00000
  H   22     1.07920   18   121.06000   17   180.00000
  C   17     2.66000   18    90.00000   22   -90.00000
  C   25     1.31800   17    90.00000   18     0.00000
  H   25     1.08130   26   121.97410   17   -90.00000
  H   25     1.08070   26   121.98310   27   180.00000
  H   26     1.08460   25   119.61500   27   180.00000
  C   26     1.46490   25   124.23730   28   180.00000
  H   30     1.07970   26   120.55780   25     0.00000
  H   30     1.07920   26   121.06000   25   180.00000
 $END

