 $CONTRL  SCFTYP=UHF  RUNTYP=ENERGY  ICHARG=0
   MAXIT=175  COORD=ZMT  UNITS=ANGS  NZVAR=0
   MULT= 7  $END
 $ELG NELONG=3  NATM=24 NASPIN=3  $END
 $SYSTEM  MEMORY=50000000  $END
 $BASIS  GBASIS=PM3  $END
 $DATA
  benzyl ----  6 units
  C1
  C
  C    1     1.31800
  H    1     1.08130    2   121.97410
  H    1     1.08070    2   121.98310    3   180.00000
  H    2     1.08460    1   119.61500    3   180.00000
  C    2     1.46490    1   124.23730    4   180.00000
  H    6     1.07970    2   120.55780    1     0.00000
  H    6     1.07920    2   121.06000    1   180.00000
  C    1     2.66000    2    90.00000    6   -90.00000
  C    9     1.31800    1    90.00000    2     0.00000
  H    9     1.08130   10   121.97410    1   -90.00000
  H    9     1.08070   10   121.98310   11   180.00000
  H   10     1.08460    9   119.61500   11   180.00000
  C   10     1.46490    9   124.23730   12   180.00000
  H   14     1.07970   10   120.55780    9     0.00000
  H   14     1.07920   10   121.06000    9   180.00000
  C    9     2.66000   10    90.00000   14   -90.00000
  C   17     1.31800    9    90.00000   10     0.00000
  H   17     1.08130   18   121.97410    9   -90.00000
  H   17     1.08070   18   121.98310   19   180.00000
  H   18     1.08460   17   119.61500   19   180.00000
  C   18     1.46490   17   124.23730   20   180.00000
  H   22     1.07970   18   120.55780   17     0.00000
  H   22     1.07920   18   121.06000   17   180.00000
  C   17     2.66000   18    90.00000   22   -90.00000
  C   25     1.31800   17    90.00000   18     0.00000
  H   25     1.08130   26   121.97410   17   -90.00000
  H   25     1.08070   26   121.98310   27   180.00000
  H   26     1.08460   25   119.61500   27   180.00000
  C   26     1.46490   25   124.23730   28   180.00000
  H   30     1.07970   26   120.55780   25     0.00000
  H   30     1.07920   26   121.06000   25   180.00000
  C   25     2.66000   26    90.00000   30   -90.00000
  C   33     1.31800   25    90.00000   26     0.00000
  H   33     1.08130   34   121.97410   25   -90.00000
  H   33     1.08070   34   121.98310   35   180.00000
  H   34     1.08460   33   119.61500   35   180.00000
  C   34     1.46490   33   124.23730   36   180.00000
  H   38     1.07970   34   120.55780   33     0.00000
  H   38     1.07920   34   121.06000   33   180.00000
  C   33     2.66000   34    90.00000   38   -90.00000
  C   41     1.31800   33    90.00000   34     0.00000
  H   41     1.08130   42   121.97410   33   -90.00000
  H   41     1.08070   42   121.98310   43   180.00000
  H   42     1.08460   41   119.61500   43   180.00000
  C   42     1.46490   41   124.23730   44   180.00000
  H   46     1.07970   42   120.55780   41     0.00000
  H   46     1.07920   42   121.06000   41   180.00000
 $END

