 $CONTRL SCFTYP=RHF RUNTYP=ENERGY ICHARG=-1
  mult=1 coord=zmt units=angs nzvar=0 NPRINT=-5
 MAXIT= 95 $END
 $ELG NELONG=3 NATM=56 NCT=1 NTMLB=1  I2EA=1 $END
 $SYSTEM MEMORY=50000000 $END
 $SCF CONV=1.0d-6  $END
 $BASIS  GBASIS=STO NGAUSS=3 $END
 $DATA
 polyglycine n= 18  ( C5)
C1
 X
 X   1  Rcc
 X   1  Rch   2  AAA
 X   2  Rcn   1  BET   3    Psi
 X   1  Rch   2  AAA   4    Gfl
 X   1  Rch   2  AAA   4    Gf2
 X   4  Rhn   2  HNC   1    xyz
 X   2  Rco   4  OCN   7    Omg
 X   4  Rc2   2  CNC   1    Omg
 X   9  Rch   4  AAA   2    Gma
 X   9  Rch   4  AAA   2    Gm2
 X   9  Rcc   4  CCN   2    Phi
 X  12  Rcn   9  BET   4    Psi
 X  13  Rhn  12  HNC   9    xyz
 X  12  Rco  13  OCN  14    Omg
 X  13  Rc2  12  CNC   9    Omg
 X  16  Rch  13  AAA  12    Gma
 X  16  Rch  13  AAA  12    Gm2
 X  16  Rcc  13  CCN  12    Phi
 X  19  Rcn  16  BET  13    Psi
 X  20  Rhn  19  HNC  16    xyz
 X  19  Rco  20  OCN  21    Omg
 X  20  Rc2  19  CNC  16    Omg
 X  23  Rch  20  AAA  19    Gma
 X  23  Rch  20  AAA  19    Gm2
 X  23  Rcc  20  CCN  19    Phi
 X  26  Rcn  23  BET  20    Psi
 X  27  Rhn  26  HNC  23    xyz
 X  26  Rco  27  OCN  28    Omg
 C  27  Rc2  26  CNC  23    Omg
 H  30  Rch  27  AAA  26    Gma
 H  30  Rch  27  AAA  26    Gm2
 C  30  Rcc  27  CCN  26    Phi
 N  33  Rcn  30  BET  27    Psi
 H  34  Rhn  33  HNC  30    xyz
 O  33  Rco  34  OCN  35    Omg
 C  34  Rc2  33  CNC  30    Omg
 H  37  Rch  34  AAA  33    Gma
 H  37  Rch  34  AAA  33    Gm2
 C  37  Rcc  34  CCN  33    Phi
 N  40  Rcn  37  BET  34    Psi
 H  41  Rhn  40  HNC  37    xyz
 O  40  Rco  41  OCN  42    Omg
 C  41  Rc2  40  CNC  37    Omg
 H  44  Rch  41  AAA  40    Gma
 H  44  Rch  41  AAA  40    Gm2
 C  44  Rcc  41  CCN  40    Phi
 N  47  Rcn  44  BET  41    Psi
 H  48  Rhn  47  HNC  44    xyz
 O  47  Rco  48  OCN  49    Omg
 C  48  Rc2  47  CNC  44    Omg
 H  51  Rch  48  AAA  47    Gma
 H  51  Rch  48  AAA  47    Gm2
 C  51  Rcc  48  CCN  47    Phi
 N  54  Rcn  51  BET  48    Psi
 H  55  Rhn  54  HNC  51    xyz
 O  54  Rco  55  OCN  56    Omg
 C  55  Rc2  54  CNC  51    Omg
 H  58  Rch  55  AAA  54    Gma
 H  58  Rch  55  AAA  54    Gm2
 C  58  Rcc  55  CCN  54    Phi
 N  61  Rcn  58  BET  55    Psi
 H  62  Rhn  61  HNC  58    xyz
 O  61  Rco  62  OCN  63    Omg
 C  62  Rc2  61  CNC  58    Omg
 H  65  Rch  62  AAA  61    Gma
 H  65  Rch  62  AAA  61    Gm2
 C  65  Rcc  62  CCN  61    Phi
 N  68  Rcn  65  BET  62    Psi
 H  69  Rhn  68  HNC  65    xyz
 O  68  Rco  69  OCN  70    Omg
 C  69  Rc2  68  CNC  65    Omg
 H  72  Rch  69  AAA  68    Gma
 H  72  Rch  69  AAA  68    Gm2
 C  72  Rcc  69  CCN  68    Phi
 N  75  Rcn  72  BET  69    Psi
 H  76  Rhn  75  HNC  72    xyz
 O  75  Rco  76  OCN  77    Omg
 C  76  Rc2  75  CNC  72    Omg
 H  79  Rch  76  AAA  75    Gma
 H  79  Rch  76  AAA  75    Gm2
 C  79  Rcc  76  CCN  75    Phi
 N  82  Rcn  79  BET  76    Psi
 H  83  Rhn  82  HNC  79    xyz
 O  82  Rco  83  OCN  84    Omg
 C  83  Rc2  82  CNC  79    Omg
 H  86  Rch  83  AAA  82    Gma
 H  86  Rch  83  AAA  82    Gm2
 C  86  Rcc  83  CCN  82    Phi
 N  89  Rcn  86  BET  83    Psi
 H  90  Rhn  89  HNC  86    xyz
 O  89  Rco  90  OCN  91    Omg
 C  90  Rc2  89  CNC  86    Omg
 H  93  Rch  90  AAA  89    Gma
 H  93  Rch  90  AAA  89    Gm2
 C  93  Rcc  90  CCN  89    Phi
 N  96  Rcn  93  BET  90    Psi
 H  97  Rhn  96  HNC  93    xyz
 O  96  Rco  97  OCN  98    Omg
 C  97  Rc2  96  CNC  93    Omg
 H  100  Rch  97  AAA  96    Gma
 H  100  Rch  97  AAA  96    Gm2
 C  100  Rcc  97  CCN  96    Phi
 N  103  Rcn  100  BET  97    Psi
 H  104  Rhn  103  HNC  100    xyz
 O  103  Rco  104  OCN  105    Omg
 C  104  Rc2  103  CNC  100    Omg
 H  107  Rch  104  AAA  103    Gma
 H  107  Rch  104  AAA  103    Gm2
 C  107  Rcc  104  CCN  103    Phi
 N  110  Rcn  107  BET  104    Psi
 H  111  Rhn  110  HNC  107    xyz
 O  110  Rco  111  OCN  112    Omg
 C  111  Rc2  110  CNC  107    Omg
 H  114  Rch  111  AAA  110    Gma
 H  114  Rch  111  AAA  110    Gm2
 C  114  Rcc  111  CCN  110    Phi
 N  117  Rcn  114  BET  111    Psi
 H  118  Rhn  117  HNC  114    xyz
 O  117  Rco  118  OCN  119    Omg
 C  118  Rc2  117  CNC  114    Omg
 H  121  Rch  118  AAA  117    Gma
 H  121  Rch  118  AAA  117    Gm2
 C  121  Rcc  118  CCN  117    Phi
 N  124  Rcn  121  BET  118    Psi
 H  125  Rhn  124  HNC  121    xyz
 O  124  Rco  125  OCN  126    Omg
 C  125  Rc2  124  CNC  121    Omg
 H  128  Rch  125  AAA  124    Gma
 H  128  Rch  125  AAA  124    Gm2
 H  128  Rch  125  CCN  124    Phi

Rc2 =   1.4580
Rcc =   1.5500
Rcn =   1.3580
Rco =   1.2450
Rhn =   1.0270
Rch =   1.0000
CCN = 107.0000
BET = 115.1000
CNC = 123.1000
OCN = 125.5000
HNC = 121.0000
AAA = 109.5000
Phi = 180.0000
Psi = 180.0000
Omg = 180.0000
Gma = 300.0000
Gm2 =  60.0000
Gfl = 300.0000
Gf2 =  60.0000
xyz =   0.0000
$END
