 $CONTRL SCFTYP=UHF RUNTYP=ENERGY ICHARG=0
  mult=2 coord=zmt units=angs nzvar=0 NPRINT=-5
 MAXIT= 95 $END
 $ELG NELONG=3 NATM= 29 I2EA=1 NASPIN=1 NCT=0  ATOB=.FALSE.  NTMLB=0   $END
 $SYSTEM MEMORY=50000000 $END
 $SCF CONV=1.0d-6  $END
 $BASIS  GBASIS=STO NGAUSS=3 $END
 $DATA
 polyglycine n= 10  ( C5)
C1
 C
 C   1  Rcc
 H   1  Rch   2  AAA
 N   2  Rcn   1  BET   3    Psi
 H   1  Rch   2  AAA   4    Gfl
 H   1  Rch   2  AAA   4    Gf2
 H   4  Rhn   2  HNC   1    xyz
 O   2  Rco   4  OCN   7    Omg
 C   4  Rc2   2  CNC   1    Omg
 H   9  Rch   4  AAA   2    Gma
 H   9  Rch   4  AAA   2    Gm2
 C   9  Rcc   4  CCN   2    Phi
 N  12  Rcn   9  BET   4    Psi
 H  13  Rhn  12  HNC   9    xyz
 O  12  Rco  13  OCN  14    Omg
 C  13  Rc2  12  CNC   9    Omg
 H  16  Rch  13  AAA  12    Gma
 H  16  Rch  13  AAA  12    Gm2
 C  16  Rcc  13  CCN  12    Phi
 N  19  Rcn  16  BET  13    Psi
 H  20  Rhn  19  HNC  16    xyz
 O  19  Rco  20  OCN  21    Omg
 C  20  Rc2  19  CNC  16    Omg
 H  23  Rch  20  AAA  19    Gma
 H  23  Rch  20  AAA  19    Gm2
 C  23  Rcc  20  CCN  19    Phi
 N  26  Rcn  23  BET  20    Psi
 H  27  Rhn  26  HNC  23    xyz
 O  26  Rco  27  OCN  28    Omg
 C  27  Rc2  26  CNC  23    Omg
 H  30  Rch  27  AAA  26    Gma
 H  30  Rch  27  AAA  26    Gm2
 C  30  Rcc  27  CCN  26    Phi
 N  33  Rcn  30  BET  27    Psi
 H  34  Rhn  33  HNC  30    xyz
 O  33  Rco  34  OCN  35    Omg
 C  34  Rc2  33  CNC  30    Omg
 H  37  Rch  34  AAA  33    Gma
 H  37  Rch  34  AAA  33    Gm2
 C  37  Rcc  34  CCN  33    Phi
 N  40  Rcn  37  BET  34    Psi
 H  41  Rhn  40  HNC  37    xyz
 O  40  Rco  41  OCN  42    Omg
 C  41  Rc2  40  CNC  37    Omg
 H  44  Rch  41  AAA  40    Gma
 H  44  Rch  41  AAA  40    Gm2
 C  44  Rcc  41  CCN  40    Phi
 N  47  Rcn  44  BET  41    Psi
 H  48  Rhn  47  HNC  44    xyz
 O  47  Rco  48  OCN  49    Omg
 C  48  Rc2  47  CNC  44    Omg
 H  51  Rch  48  AAA  47    Gma
 H  51  Rch  48  AAA  47    Gm2
 C  51  Rcc  48  CCN  47    Phi
 N  54  Rcn  51  BET  48    Psi
 H  55  Rhn  54  HNC  51    xyz
 O  54  Rco  55  OCN  56    Omg
 C  55  Rc2  54  CNC  51    Omg
 H  58  Rch  55  AAA  54    Gma
 H  58  Rch  55  AAA  54    Gm2
 C  58  Rcc  55  CCN  54    Phi
 N  61  Rcn  58  BET  55    Psi
 H  62  Rhn  61  HNC  58    xyz
 O  61  Rco  62  OCN  63    Omg
 C  62  Rc2  61  CNC  58    Omg
 H  65  Rch  62  AAA  61    Gma
 H  65  Rch  62  AAA  61    Gm2
 C  65  Rcc  62  CCN  61    Phi
 N  68  Rcn  65  BET  62    Psi
 H  69  Rhn  68  HNC  65    xyz
 O  68  Rco  69  OCN  70    Omg
 C  69  Rc2  68  CNC  65    Omg
 H  72  Rch  69  AAA  68    Gma
 H  72  Rch  69  AAA  68    Gm2

Rc2 =   1.4580
Rcc =   1.5500
Rcn =   1.3580
Rco =   1.2450
Rhn =   1.0270
Rch =   1.0000
CCN = 107.0000
BET = 115.1000
CNC = 123.1000
OCN = 125.5000
HNC = 121.0000
AAA = 109.5000
Phi = 180.0000
Psi = 180.0000
Omg = 180.0000
Gma = 300.0000
Gm2 =  60.0000
Gfl = 300.0000
Gf2 =  60.0000
xyz =   0.0000
$END
