!   File created by the GAMESS Input Deck Generator Plugin for Avogadro
 $SYSTEM MWORDS=12 $END
 $BASIS GBASIS=N21 NGAUSS=3 $END
 $STATPT OPTTOL=5.0E-4 NSTEP=0
  IACTAT(1)=1,2,3,4,5,25,26,16,17,18
 $END
 $GDDI NGROUP=1 $END
 $CONTRL SCFTYP=RHF RUNTYP=OPTIMIZE
  LOCAL=BOYS
 $END
! $FMOPRP NPRINT=0 $END
 $FMO
  IACTFG(1)=1,3
  RAFO(1)=1,1,1
  NLAYER=2
  NFRAG=7
  NBODY=2
  IEFMO=1
  MPLEVL(1)=0,0
  LAYER(1)=2,2,2,1,1,1,1
  INDAT(1)=0,
           1, -5, 25, 26, 0,
           27, -33, 0,
           16,-18, 0,
           22,-24, 0,
           19,-21, 0,
           6,-10, 0,
           11,-15, 0
! FD
  MODFD=1
! FDD
!  MODFD=3
 $END
 $FMOBND
  -5  27
 $END
 $DATA 
Title
C1
H-1 1
C-1 6
O-1 8
H-2 1
C-2 6
O-2 8
 $END
 $FMOXYZ
C     6.0    -2.77318     3.13714     0.13043
H     1.0    -1.75313     3.57630     0.11703
H     1.0    -2.88885     2.52903     1.05230
H     1.0    -2.89681     2.47251    -0.75114
C     6.0    -3.81947     4.24480     0.11116
C     6.0    -2.80198    -0.89948    -0.10256
H     1.0    -1.82763    -1.42679    -0.04684
H     1.0    -2.78659    -0.18176    -0.94820
H     1.0    -2.97944    -0.34973     0.84453
H     1.0    -3.61376    -1.63884    -0.25997
C     6.0     2.98791     0.95544     0.08013
H     1.0     4.09511     0.92371     0.13355
H     1.0     2.63631     1.98596     0.29336
H     1.0     2.55979     0.25718     0.82867
H     1.0     2.65662     0.65527    -0.93534
O     8.0    -5.65349     1.12518     0.18356
H     1.0    -5.33602     1.10247    -0.75417
H     1.0    -5.73529     0.17296     0.44180
O     8.0    -0.15245     1.38479     0.04244
H     1.0    -0.07343     0.49504    -0.38364
H     1.0    -0.54814     1.20144     0.93137
O     8.0     1.05209     4.75444    -0.07076
H     1.0     1.99438     5.04819     0.00974
H     1.0     0.60189     5.49330    -0.55252
H     1.0    -3.68495     4.88151     1.01274
H     1.0    -4.83055     3.78509     0.14672
C     6.0    -3.68735     5.10265    -1.15145
H     1.0    -2.67739     5.56715    -1.18363
C     6.0    -4.74052     6.20541    -1.17706
H     1.0    -3.81517     4.46375    -2.05257
H     1.0    -4.62383     6.87126    -0.29555
H     1.0    -5.76003     5.76403    -1.16915
H     1.0    -4.62232     6.81142    -2.09985
 $END
