! EFMO EXAM 01.
!    water trimer...illustration of EFMO method on clusters.
!    taken from EXAM 37 of the standard test set.
!
 $contrl scftyp=rhf runtyp=energy $end
 $system timlim=1 $end
 $basis  gbasis=sto ngauss=3 $end
 $fmo    nfrag=3 icharg(1)=0,0,0
         frgnam(1)=frag01,frag02,frag03
         indat(1)=1,1,1,
                  2,2,2,
                  3,3,3
         resdim=0.5
         iefmo=1
         modefm(1)=8,28,1,1,1
 $end
 $fmoprp nprint=0 $end
 $fmoxyz
O  O        .000000     .000000     .000000
H  H        .000000     .000000     .957200
H  H        .926627     .000000    -.239987
O  O       2.542027     .893763   -1.001593
H  H       1.991815    1.623962   -1.284979
H  H       2.958433     .581215   -1.804806
O  O        .162059    2.462918   -1.477183
H  H       -.189749    1.755643    -.936605
H  H       -.375542    2.449889   -2.269046
 $end
 $data
Basis set input, with no atomic coordinates
C1
h-1 1
c-1 6
n-1 7
o-1 8
 $end
