! GAMESS/VB2000 Test 21.
! This run is a test of an open shell case, and like test 20 an
! illustration of more complex data with a basis set (D95)
! that is not present in Gamess. Note that the property groups are 
! present in the data so they are calculated in both the HF and VB 
! parts.
!
! Note that the data has been entered with no symmetry. This is a 
! CASVB run. SPDEN is included on the command line.
!
! The final ROHF energy is:=
!
! ROHF ENERGY IS -100.4222525464 AFTER   9 ITERATIONS
!
! The VB final energy is:-
!
! ENERGY AND DIFF OF MACROITER   11 =   -100.46902055     -0.00000018
!
! and the VB and HF dipole moments are zero. The spin densities on H
! and F are 0.56736 and -0.13473.
!
 $CONTRL SCFTYP=ROHF MULT=2 COORD=UNIQUE 
   VBTYP=VB2000 $END
 $SYSTEM TIMLIM=20 MEMORY=2000000 $END
 $GUESS  GUESS=HUCKEL $END
 $ELMOM IEMOM=3 $END
 $ELFLDG IEFLD=2 $END
 $ELPOT  IEPOT=1 OUTPUT=BOTH $END
 $ELDENS IEDEN=1 WHERE=POINTS $END
 $POINTS
 ANGS 6
    .000000 -1.18000  0.0
    .000000   .00000  0.0
    .000000  1.18000  0.0
    1.0                 0.0             0.0
   -1.0                 0.0             0.0
    0.0000000000    2.0000000000   0.6000000000
 $DATA
H2F DOUBLET D95
C1  
H  1.0    .000000 -1.18000  0.0
 S    3 1.00
 1  0.1924060000D+02  0.3282800000D-01
 2  0.2899200000D+01  0.2312080000D+00
 3  0.6534000000D+00  0.8172380000D+00
 S    1 1.00
 1  0.1776000000D+00  0.1000000000D+01

F  9.0    .000000   .00000  0.0
 S    6 1.00
 1  0.9994790000D+04  0.2017000000D-02
 2  0.1506030000D+04  0.1529500000D-01
 3  0.3502690000D+03  0.7311000000D-01
 4  0.1040530000D+03  0.2464200000D+00
 5  0.3484320000D+02  0.6125930000D+00
 6  0.4368800000D+01  0.2424890000D+00
 S    1 1.00
 1  0.1221640000D+02  0.1000000000D+01
 S    1 1.00
 1  0.1207800000D+01  0.1000000000D+01
 S    1 1.00
 1  0.3634000000D+00  0.1000000000D+01
 P    4 1.00
 1  0.4435550000D+02  0.2086800000D-01
 2  0.1008200000D+02  0.1300920000D+00
 3  0.2995900000D+01  0.3962190000D+00
 4  0.9383000000D+00  0.6203680000D+00
 P    1 1.00
 1  0.2733000000D+00  0.1000000000D+01

H  1.0    .000000  1.18000  0.0
 S    3 1.00
 1  0.1924060000D+02  0.3282800000D-01
 2  0.2899200000D+01  0.2312080000D+00
 3  0.6534000000D+00  0.8172380000D+00
 S    1 1.00
 1  0.1776000000D+00  0.1000000000D+01

 $END
 $VB2000

#! CASVB(5,4)/D95 PRINTALL SPDEN

TEST H2F. CASVB WITH 5 ELECTRONS IN 4 ORBITALS

0 2

H    .000000 -1.18000  0.0
F    .000000   .00000  0.0
H    .000000  1.18000  0.0

 $LMOGRPMODIFY
 6
 1,1
 2,2
 3,2
 4,1
 5,1
 6,2

 $GRPDIM
 3,4

 $02VBORB
 2->3
 3->1
 2->1
 1->2

 $LOCVBO
 4
 4,1,2
 5,1,3
 6,1,2
 7,1,1

 $END

