! GAMESS/VB2000 Test 9.
! This test simply tests the VB2000 part of EXETYP=CHECK.
! The data is for the fairly complex trudge run in test 8.
!
! You should find one reference to the $VB2000 group in the
! output. This just lists the first part of the data, giving 
! the command line, title, charge and multiplity, and coordinates, 
! followed by the heading line of each VB2000 block (every line 
! that contains a command starting with '$'), all without any 
! checking. Later, it enters the vb2000 code and progresses, 
! giving some useful output until it estimates the memory as:
!
! MEMORY NEEDED:        5334
! MEMORY ALLOCATED:  6500000
!
 $CONTRL SCFTYP=RHF VBTYP=VB2000 COORD=HINT
   RUNTYP=TRUDGE EXETYP=CHECK INTTYP=HONDO $END
 $SYSTEM TIMLIM=20 MEMORY=2000000 $END
 $GUESS  GUESS=HUCKEL $END
 $TRUDGE OPTMIZ=GEOMETRY NPAR=3
   IEX(1)=21,31,32 $END
 $TRURST TOLF=0.0001 TOLR=0.001 FNOISE=0.00001 $END 
 $DATA
Water D95
C1
O  8.0  LC 0.00 0.00  0.00 - O K
 S    6 1.00
1  0.7816540000D+04  0.2031000000D-02
2  0.1175820000D+04  0.1543600000D-01
3  0.2731880000D+03  0.7377100000D-01
4  0.8116960000D+02  0.2476060000D+00
5  0.2718360000D+02  0.6118320000D+00
6  0.3413600000D+01  0.2412050000D+00
 S    1 1.00
1  0.9532200000D+01  0.1000000000D+01
 S    1 1.00
1  0.9398000000D+00  0.1000000000D+01
 S    1 1.00
1  0.2846000000D+00  0.1000000000D+01
 P    4 1.00
1  0.3518320000D+02  0.1958000000D-01
2  0.7904000000D+01  0.1241890000D+00
3  0.2305100000D+01  0.3947270000D+00
4  0.7171000000D+00  0.6273750000D+00
 P    1 1.00
1  0.2137000000D+00  0.1000000000D+01

H  1.0  PCC 1.00 0.0 0.00 + O K I
 S    3 1.00
1  0.1924060000D+02  0.3282800000D-01
2  0.2899200000D+01  0.2312080000D+00
3  0.6534000000D+00  0.8172380000D+00
 S    1 1.00
1  0.1776000000D+00  0.1000000000D+01

H  1.0  PCC 1.00 100.0 0.00 + O K I
 S    3 1.00
1  0.1924060000D+02  0.3282800000D-01
2  0.2899200000D+01  0.2312080000D+00
3  0.6534000000D+00  0.8172380000D+00
 S    1 1.00
1  0.1776000000D+00  0.1000000000D+01

 $END
 $VB2000  
#! VB(4)/D95 PRINTALL 

Water
Line 2 test

0 1
8    0.0000000000    0.0000000000   0.0000000000
1    0.0000000000   -0.7572153434   0.5865355237
1    0.0000000000    0.7572153434   0.5865355237

 $MACROITER
 20

 $ECONV
 7

 $END

