! GAMESS/VB2000 Test 22.
! This run is both a test of an open shell case, and an
! illustration of more complex data with a basis set (D95)
! that is not present in Gamess.
!
! The final energies are:-
!
! ROHF ENERGY IS -1.9474434093 AFTER   8 ITERATIONS
!
! ENERGY AND DIFF OF MACROITER    3 =     -1.98199012      0.00000000
!
! The spin densities are:-
!
!    1     -0.26458
!    2      0.75486
!    3      0.75486
!    4      0.75486
!
 $CONTRL SCFTYP=ROHF MULT=3 COORD=UNIQUE 
   VBTYP=VB2000
 $END
 $SYSTEM TIMLIM=20 MEMORY=2000000 $END
 $BASIS GBASIS=STO NGAUSS=3 $END
 $GUESS  GUESS=HUCKEL $END
 $DATA
H4 TMM-like triplet SPDEN test
C1
H1  1.0     0.0000000000        0.0000000000        0.0000000000
H2  1.0     0.0000000000        1.0000000000        0.0000000000 
H3  1.0     0.8660254038       -0.5000000000        0.0000000000
H4  1.0    -0.8660254038       -0.5000000000        0.0000000000
 $END
 $VB2000
#! SCVB(4)/STO-3G PRINTALL

H4 TMM-like triplet SPDEN test

0 3
1     0.0000000000        0.0000000000        0.0000000000
1     0.0000000000        1.0000000000        0.0000000000 
1     0.8660254038       -0.5000000000        0.0000000000
1    -0.8660254038       -0.5000000000        0.0000000000


 $GRPDIM
 4

 $01VBORB
 2-1
 3-4

 $SPDEN

 $END

