! GAMESS/VB2000 Test 5.
! This run is the same method and geometry as test 3, but 
! illustrates a larger basis set, including f orbitals which are 
! not possible with the stand-alone VB2000 code. This has the 
! maximum number of d (3) and f (1) functions on O and the 
! maximum number of p (3) on H that can be defined ! in $BASIS 
! with NDFUNC and NFFUNC. This is larger than in earlier versions.
!
! It also uses the non-documented $LSTVBOLIB directive that writes 
! out the VBOLIB to test the process that creates the VBOLIB for
! the 6-311G(3df,3p) basis set on the fly from the VBOLIB for
! 6-311G.
!
! The final RHF energy is:-
!
! RHF ENERGY IS -76.0556250333 AFTER  10 ITERATIONS
!
! The final VB energy is:-
!
! ENERGY AND DIFF OF MACROITER   12 =    -76.09766229     -0.00000038
!
! and the VB and HF dipole moments are 1.7969 and 1.9017 respectively.
! 
 $CONTRL SCFTYP=RHF COORD=UNIQUE VBTYP=VB2000 $END
 $SYSTEM TIMLIM=20 MEMORY=2000000 $END
 $BASIS GBASIS=N311 NGAUSS=6 NDFUNC=3 NFFUNC=1 NPFUNC=3 $END
 $GUESS  GUESS=HUCKEL $END
 $DATA
Water 6-311G(3df,3p) VB2000 Test
C1
O 8.0    0.0000000000    0.0000000000   0.0000000000
H 1.0    0.0000000000   -0.7572153434   0.5865355237
H 1.0    0.0000000000    0.7572153434   0.5865355237
 $END
 $VB2000
#! VB(4)/6-311G(3df,3p) PRINTALL

Water

0 1
8    0.0000000000    0.0000000000   0.0000000000
1    0.0000000000   -0.7572153434   0.5865355237
1    0.0000000000    0.7572153434   0.5865355237

 $02VBORB
 1-2
 1-3

 $LSTVBOLIB

 $END

