! GAMESS/VB2000 Test 13.
! This run illustrates calculating the frequencies using the 
! geometry determined by run 12. Note the use of the $FORCE 
! group which is required.
!
! The final VB energy is:
!
! ENERGY AND DIFF OF MACROITER   15 =    -76.02933220      0.00000000
!
!                  1           2           3           4           5
!  FREQUENCY:     0.61        0.58        0.33       27.04       31.25
!                  6           7           8           9
!  FREQUENCY:    34.58     1717.27     3587.64     3734.66 
!
! Note that these values, particularly the 6 "Zero" values are fairly
! sensitive to choice of compiler and system.
!
 $CONTRL SCFTYP=RHF VBTYP=VB2000 COORD=UNIQUE
   RUNTYP=HESSIAN INTTYP=HONDO
 $END
 $FORCE METHOD=FULLNUM $END
 $STATPT OPTTOL=0.00001 $END
 $SYSTEM TIMLIM=20 MEMORY=2000000 $END
 $BASIS  GBASIS=N31 NGAUSS=6 $END
 $GUESS  GUESS=HUCKEL $END
 $DATA
Water 6-31G VB2000 Test
C1
O     8.0   0.0358545316   0.0000000000   0.0300801837
H     1.0  -0.0325918777   0.0000000000   1.0024403184
H     1.0   0.9815450987   0.0000000000  -0.2061686802
 $END
 $VB2000
#! VB(4)/6-31G PRINTALL 

Water 6-31G VB2000 Test

 $CMAXCUT
 0.05

 $END

