! GAMESS/VB2000 Test 23.
! This run is an example of a VB2000 run for a closed shell case with
! localization enhancement control.
!
! The final RHF energy is:=
!
!  RHF ENERGY IS -76.0098376605 AFTER  10 ITERATIONS
!
! The VB final energy is:-
!
! ENERGY AND DIFF OF MACROITER   19 =    -76.05227092      0.00000011
!
! and the VB and HF dipole moments are 2.4261 and 2.5778 respectively.
!
! Note that the VB energy, with this amount of localization is actually
! higher than the MO energy.
! 
! The delocalization penalty weight is 0.1 as defined in $DPWEIGHT. The
! LENHANCE data block is for group 2 - the VB(4) group. The 4 VB orbitals
! are localized on atoms 1, 2, 1 and 3.
!
! $DPWEIGHT
! 0.1
!
! $02LENHANCE
! 4
! 1,1,1
! 2,1,2
! 3,1,1
! 4,1,3
! 
! This run also tests the DIIS convergence method and a tight convergence
! control. The delocalisation should be:-
! 
! DELOCALIZATION FOR VB ORBITALS OF GROUP  2
! =============================================
! VBO INDEX =  1 DELOCALIZATION =   0.00375
! VBO INDEX =  2 DELOCALIZATION =   0.01603
! VBO INDEX =  3 DELOCALIZATION =   0.00375
! VBO INDEX =  4 DELOCALIZATION =   0.01604
!
! This system can lead to a failure in the GAMESS RHF calculation with
! some versions of the ifort compiler. Such errors are common and can be
! overcome with the use of the Jacobi method for diagonalisation by adding
! KDIAG=3 in the $SYSTEM block. This is illustreated in this test.
!
 $CONTRL SCFTYP=RHF COORD=UNIQUE VBTYP=VB2000
 $END
 $SYSTEM TIMLIM=20 MEMORY=2000000 KDIAG=3 $END
 $GUESS  GUESS=HUCKEL $END
 $DATA
Water D95
C1  
OXYGEN    8.0     0.000000   0.000000   0.000000
 S    6 1.00
1  0.7816540000D+04  0.2031000000D-02
2  0.1175820000D+04  0.1543600000D-01
3  0.2731880000D+03  0.7377100000D-01
4  0.8116960000D+02  0.2476060000D+00
5  0.2718360000D+02  0.6118320000D+00
6  0.3413600000D+01  0.2412050000D+00
 S    1 1.00
1  0.9532200000D+01  0.1000000000D+01
 S    1 1.00
1  0.9398000000D+00  0.1000000000D+01
 S    1 1.00
1  0.2846000000D+00  0.1000000000D+01
 P    4 1.00
1  0.3518320000D+02  0.1958000000D-01
2  0.7904000000D+01  0.1241890000D+00
3  0.2305100000D+01  0.3947270000D+00
4  0.7171000000D+00  0.6273750000D+00
 P    1 1.00
1  0.2137000000D+00  0.1000000000D+01

HYDROGEN  1.0     0.801842   0.000000   0.555582
 S    3 1.00
1  0.1924060000D+02  0.3282800000D-01
2  0.2899200000D+01  0.2312080000D+00
3  0.6534000000D+00  0.8172380000D+00
 S    1 1.00
1  0.1776000000D+00  0.1000000000D+01

HYDROGEN  1.0    -0.801842   0.000000   0.555582
 S    3 1.00
1  0.1924060000D+02  0.3282800000D-01
2  0.2899200000D+01  0.2312080000D+00
3  0.6534000000D+00  0.8172380000D+00
 S    1 1.00
1  0.1776000000D+00  0.1000000000D+01

 $END
 $VB2000
#! VB(4)/d95  printall diis

TEST H2O

0 1
8   .000000   .000000   .000000
1   .801842   .000000   .555582
1  -.801842   .000000   .555582 

$02VBORB
1-2
1-3

$02VBSTR
3
1 2 3 4
1 1 3 4
3 3 1 2

$02LENHANCE
4,0.1
1,1,1
2,1,2
3,1,1
4,1,3

$MACROITER
30

$ECONV
7

 $END

