! GAMESS/VB2000 Test 18.
! This run demonstates that the Gamess/VB code can run effective core
! potential calculations, in this case with the SBKJC potential. It
! also tests the CUBE facility by generating small cube files for the
! top two MOs.
!
! The final RHF energy is:=
!
!  RHF ENERGY IS -10.2742272739 AFTER   9 ITERATIONS
!
! The VB final energy is:-
!
!  ENERGY AND DIFF OF MACROITER    8 =    -10.31300169     -0.00000010
!
! and the VB and HF dipole moments are 1.4404 and 1.4887 respectively.
!
 $CONTRL SCFTYP=RHF COORD=UNIQUE VBTYP=VB2000 ECP=SBKJC $END
 $SYSTEM TIMLIM=20 MEMORY=2000000 $END
 $BASIS GBASIS=SBKJC $END
 $GUESS  GUESS=HUCKEL $END
 $DATA
Selenium dihydride - SBKJC
C1
 SELENIUM   34.0   0.0000000000   0.0000000000  -0.2752608204
 HYDROGEN    1.0   0.0000000000  -1.0776417007   0.7241659339
 HYDROGEN    1.0   0.0000000000   1.0776417007   0.7241659339
 $END
 $VB2000
#! VB(4)/Gen PRINTALL
 
Selenium dihydride - SBKJC

 $CUBE
 2
 3 4 
 SeH2 SBKJC
 8
  
 $END

