! GAMESS/VB2000 Test 19.
! This run demonstates that the Gamess/VB code can run effective core
! potential calculations, in this case with the Heys-Wadt potential.
!
! Note that the data has been entered with no symmetry.
!
! The final RHF energy is:=
!
! RHF ENERGY IS -10.1459494658 AFTER   9 ITERATIONS
!
! The VB final energy is:-
!
!  ENERGY AND DIFF OF MACROITER    8 =    -10.18331270     -0.00000007
!
! and the VB and HF dipole moments are 1.2968 and 1.3083 respectively.
!
 $CONTRL SCFTYP=RHF COORD=UNIQUE VBTYP=VB2000 ECP=HW $END
 $SYSTEM TIMLIM=20 MEMORY=2000000 $END
 $BASIS GBASIS=HW $END
 $GUESS  GUESS=HUCKEL $END
 $DATA
Selenium dihydride - HW
C1
 SELENIUM   34.0   0.0000000000   0.0000000000  -0.2752608204
 HYDROGEN    1.0   0.0000000000  -1.0776417007   0.7241659339
 HYDROGEN    1.0   0.0000000000   1.0776417007   0.7241659339
 $END
 $VB2000
#! VB(4)/Gen PRINTALL
 
Selenium dihydride - HW
  
 $END

