! GAMESS/VB2000 Test 20.
! This run is both a test of an open shell case, and an illustration 
! of more complex data with a basis set (D95) that is not present in 
! Gamess.
!
! It is also a badly conditioned system in that the order of the 
! localised orbital differs with different compilers. The $LMOGRPMODIFY
! data below is often required, but with some compilers it is not and 
! the two pi LMOs are at the top of the occupied orbitals. If this is 
! the case remove the $LMOGRPMODIFY block or alter its name to something 
! not recognised (like $KMOGRPMODIFY).
!
! This test is also the first that tests the spin density code, called 
! by the use of SPDEN on the main command line. In the Gamess version, 
! this is necessary to calculate all the VB properties in Gamess on 
! return from the VB2000 routines. It should not normally be missed out 
! for open-shell systems although it is complex and time consuming 
! particularly for VB groups with 10 or more electrons. 
!  
! Note that the data has been entered with no symmetry.  
!  
! The final ROHF energy is:= 
!  
! ROHF ENERGY IS -154.8285407061 AFTER  10 ITERATIONS
!  
! The VB final energy is:- 
!  
! ENERGY AND DIFF OF MACROITER    5 = -154.86929401     -0.00000001 
!  
! and the VB and HF dipole moments are zero. The spin densities are 
! -0.33638 on atom 1 and  0.77879 on atoms 2, 3 and 4.
!
 $CONTRL SCFTYP=ROHF MULT=3 COORD=UNIQUE 
  EXETYP=RUN  UNITS=BOHR VBTYP=VB2000
 $END
 $SYSTEM TIMLIM=20 MEMORY=2000000 $END
 $GUESS  GUESS=HUCKEL $END
 $DATA
TMM TRIPLET D95
C1  
CARBON    6.0     0.0000000000        0.0000000000        0.0000000000
  S    6  1.0
1   4232.6098633    .0020290001
2    634.8820190    .0155349998
3    146.0970001    .0754109994
4     42.4973984    .2571209967
5     14.1892004    .5965549946
6      1.9665999    .2425169945
   S     1 1.0
1      5.1476998   1.0000000000
   S     1 1.0
1       .4962000   1.0000000000
   S     1 1.0
1       .1533000   1.0000000000
   P     4 1.0
1     18.1557007    .0185339991
2      3.9863999    .1154420003
3      1.1429000    .3862060010
4       .3594000    .6400889754
   P     1 1.0
1       .1146000   1.0000000000

CARBON    6.0     0.0000000000        2.6985287117        0.0000000000 
  S    6  1.0
1   4232.6098633    .0020290001
2    634.8820190    .0155349998
3    146.0970001    .0754109994
4     42.4973984    .2571209967
5     14.1892004    .5965549946
6      1.9665999    .2425169945
   S     1 1.0
1      5.1476998   1.0000000000
   S     1 1.0
1       .4962000   1.0000000000
   S     1 1.0
1       .1533000   1.0000000000
   P     4 1.0
1     18.1557007    .0185339991
2      3.9863999    .1154420003
3      1.1429000    .3862060010
4       .3594000    .6400889754
   P     1 1.0
1       .1146000   1.0000000000

CARBON    6.0     2.3369944172       -1.3492643558        0.0000000000
  S    6  1.0
1   4232.6098633    .0020290001
2    634.8820190    .0155349998
3    146.0970001    .0754109994
4     42.4973984    .2571209967
5     14.1892004    .5965549946
6      1.9665999    .2425169945
   S     1 1.0
1      5.1476998   1.0000000000
   S     1 1.0
1       .4962000   1.0000000000
   S     1 1.0
1       .1533000   1.0000000000
   P     4 1.0
1     18.1557007    .0185339991
2      3.9863999    .1154420003
3      1.1429000    .3862060010
4       .3594000    .6400889754
   P     1 1.0
1       .1146000   1.0000000000

CARBON    6.0    -2.3369944172       -1.3492643558        0.0000000000 
  S    6  1.0
1   4232.6098633    .0020290001
2    634.8820190    .0155349998
3    146.0970001    .0754109994
4     42.4973984    .2571209967
5     14.1892004    .5965549946
6      1.9665999    .2425169945
   S     1 1.0
1      5.1476998   1.0000000000
   S     1 1.0
1       .4962000   1.0000000000
   S     1 1.0
1       .1533000   1.0000000000
   P     4 1.0
1     18.1557007    .0185339991
2      3.9863999    .1154420003
3      1.1429000    .3862060010
4       .3594000    .6400889754
   P     1 1.0
1       .1146000   1.0000000000

HYDROGEN  1.0    -1.7528496640        3.7475875942        0.0000000000 
 S    3 1.00
1  0.1924060000D+02  0.3282800000D-01
2  0.2899200000D+01  0.2312080000D+00
3  0.6534000000D+00  0.8172380000D+00
 S    1 1.00
1  0.1776000000D+00  0.1000000000D+01

HYDROGEN  1.0     1.7528496640        3.7475875942        0.0000000000 
 S    3 1.00
1  0.1924060000D+02  0.3282800000D-01
2  0.2899200000D+01  0.2312080000D+00
3  0.6534000000D+00  0.8172380000D+00
 S    1 1.00
1  0.1776000000D+00  0.1000000000D+01

HYDROGEN  1.0     4.1219308914       -0.3557814591        0.0000000000 
 S    3 1.00
1  0.1924060000D+02  0.3282800000D-01
2  0.2899200000D+01  0.2312080000D+00
3  0.6534000000D+00  0.8172380000D+00
 S    1 1.00
1  0.1776000000D+00  0.1000000000D+01

HYDROGEN  1.0     2.3690812275       -3.3918061351        0.0000000000
 S    3 1.00
1  0.1924060000D+02  0.3282800000D-01
2  0.2899200000D+01  0.2312080000D+00
3  0.6534000000D+00  0.8172380000D+00
 S    1 1.00
1  0.1776000000D+00  0.1000000000D+01

HYDROGEN  1.0    -4.1219308914       -0.3557814591        0.0000000000
 S    3 1.00
1  0.1924060000D+02  0.3282800000D-01
2  0.2899200000D+01  0.2312080000D+00
3  0.6534000000D+00  0.8172380000D+00
 S    1 1.00
1  0.1776000000D+00  0.1000000000D+01

HYDROGEN  1.0    -2.3690812275       -3.3918061351        0.0000000000
 S    3 1.00
1  0.1924060000D+02  0.3282800000D-01
2  0.2899200000D+01  0.2312080000D+00
3  0.6534000000D+00  0.8172380000D+00
 S    1 1.00
1  0.1776000000D+00  0.1000000000D+01

 $END
 $VB2000
#! VB(4)/D95 UNITS=BOHR SPDEN PRINTALL 

TMM TRIPLET

0 3
6     0.0000000000        0.0000000000        0.0000000000
6     0.0000000000        2.6985287117        0.0000000000 
6     2.3369944172       -1.3492643558        0.0000000000
6    -2.3369944172       -1.3492643558        0.0000000000 
1    -1.7528496640        3.7475875942        0.0000000000 
1     1.7528496640        3.7475875942        0.0000000000 
1     4.1219308914       -0.3557814591        0.0000000000 
1     2.3690812275       -3.3918061351        0.0000000000
1    -4.1219308914       -0.3557814591        0.0000000000
1    -2.3690812275       -3.3918061351        0.0000000000

 $GENCTL
 26,4
  1,2

 $GRPDIM
 13,8

 $02VBSTR
 3
   1  2  3  4 
   1  3  4  2 
   1  4  2  3

 $LMOGRPMODIFY
 15
 1,1 
 2,1 
 3,1 
 4,1 
 5,2 
 6,1 
 7,1 
 8,1 
 9,1 
 10,1 
 11,1 
 12,1 
 13,1 
 14,1 
 15,2 

 $AOGROUP
 8
 7,17,27,37,10,20,30,40
 2,2, 2, 2, 2, 2, 2, 2 

 $NOTROT
 2
 1,2
 2,3

 $END

