! GAMESS/VB2000 Test 1.
! This run is to test whether standard Gamess jobs can run 
! when VB2000 has been linked in. It should look just like 
! a normal Gamess run.
!
! Note that the data has been entered with no symmetry.
!
! The final RHF energy is:=
!
! RHF ENERGY IS -74.9630286444 AFTER  11 ITERATIONS
!
 $CONTRL SCFTYP=RHF COORD=UNIQUE $END
 $SYSTEM TIMLIM=20 MEMORY=2000000 $END
 $BASIS GBASIS=STO NGAUSS=3 $END
 $GUESS  GUESS=HUCKEL $END
 $DATA
Water STO-3G
C1  
OXYGEN    8.0    0.0000000000    0.0000000000   0.0000000000
HYDROGEN  1.0    0.0000000000    0.7572153434   0.5865355237
HYDROGEN  1.0    0.0000000000   -0.7572153434   0.5865355237
 $END

