! GAMESS/VB2000 Test 25.
! This run is an example of a VB2000 run for a closed shell case with
! full localization using $BRILLMASK. The molecule, geometry and basis
! set are identical to test 23, so this localisation can be compared
! with that using $LENHANCE.
!
! The final RHF energy is the same as test 23:-
!
!  RHF ENERGY IS -76.0098376605 AFTER  10 ITERATIONS
!
! The VB final energy is:-
!
! ENERGY AND DIFF OF MACROITER    4 =    -75.85464851     -0.00000001
!
! and the VB and HF dipole moments are 1.2413 and 2.5778 respectively.
!
! Note that the VB energy, with this amount of localization is actually
! higher than the MO energy. All 10 electrons are in a single VB group
! so the core 1s and the lone pairs are also localised.
! 
! $GRPDIM
! 14     - all 14 basis functions are in group 1
! 
! $BRILLMASK
! -14    - BRILLMASK atomatically gets the conditions 
! 1,1,1,1,2,1,3,1,1,1,1,1,2,3 - but has to set the atoms for each AO
! 
! $01VBORB      - the first 7 are good guesses for the 7 active AOs
! AO 1
! AO 3 + AO 6
! AO 3 - AO 6
! AO 7 + AO 5
! AO 12
! AO 7 - AO 5
! AO 14
! AO 2          - these complete the space by the inactive AOs
! AO 4
! AO 8
! AO 9
! AO 10
! AO 11
! AO 13
! 
! $01VBSTR - 1, 2 and 3 are doubly occupied. 4, 5, 6 & 7 are bonds
! 1
! 1 1 2 2 3 3 4 5 6 7
! 
! As in test 23 we add KDIAG=3 in the $SYSTEM block and test the DIIS 
! convergence method.
!
 $CONTRL SCFTYP=RHF COORD=UNIQUE VBTYP=VB2000
 $END
 $SYSTEM TIMLIM=20 MEMORY=2000000 KDIAG=3 $END
 $GUESS  GUESS=HUCKEL $END
 $DATA
Water D95
C1  
OXYGEN    8.0     0.000000   0.000000   0.000000
 S    6 1.00
1  0.7816540000D+04  0.2031000000D-02
2  0.1175820000D+04  0.1543600000D-01
3  0.2731880000D+03  0.7377100000D-01
4  0.8116960000D+02  0.2476060000D+00
5  0.2718360000D+02  0.6118320000D+00
6  0.3413600000D+01  0.2412050000D+00
 S    1 1.00
1  0.9532200000D+01  0.1000000000D+01
 S    1 1.00
1  0.9398000000D+00  0.1000000000D+01
 S    1 1.00
1  0.2846000000D+00  0.1000000000D+01
 P    4 1.00
1  0.3518320000D+02  0.1958000000D-01
2  0.7904000000D+01  0.1241890000D+00
3  0.2305100000D+01  0.3947270000D+00
4  0.7171000000D+00  0.6273750000D+00
 P    1 1.00
1  0.2137000000D+00  0.1000000000D+01

HYDROGEN  1.0     0.801842   0.000000   0.555582
 S    3 1.00
1  0.1924060000D+02  0.3282800000D-01
2  0.2899200000D+01  0.2312080000D+00
3  0.6534000000D+00  0.8172380000D+00
 S    1 1.00
1  0.1776000000D+00  0.1000000000D+01

HYDROGEN  1.0    -0.801842   0.000000   0.555582
 S    3 1.00
1  0.1924060000D+02  0.3282800000D-01
2  0.2899200000D+01  0.2312080000D+00
3  0.6534000000D+00  0.8172380000D+00
 S    1 1.00
1  0.1776000000D+00  0.1000000000D+01

 $END
 $VB2000
#! VB(10)/d95  printall diis

TEST H2O

0 1
8   .000000   .000000   .000000
1   .801842   .000000   .555582
1  -.801842   .000000   .555582 

$GRPDIM
14

$BRILLMASK
-14
1,1,1,1,2,1,3,1,1,1,1,1,2,3

$01VBORB
AO 1
AO 3 + AO 6
AO 3 - AO 6
AO 7 + AO 5
AO 12
AO 7 - AO 5
AO 14
AO 2
AO 4
AO 8
AO 9
AO 10
AO 11
AO 13

$01VBSTR
1
1 1 2 2 3 3 4 5 6 7

 $END

