!  This is a restart version (see $CEDATA) of the c2h2-ceeis test
!  It will show you the final results, in just a few seconds.
!  See the full test case for an explanation of the inputs keywords.
!
 $CONTRL SCFTYP=NONE CITYP=ORMAS RUNTYP=ENERGY
 ISPHER=1 EXETYP=RUN NPRINT=-5 $END
 $SYSTEM TIMLIM=5000 MEMORY=495000000 $END
 $GUESS GUESS=MOREAD NORB=38 PURIFY=.TRUE. $END
 $CIDET ncore=2 nact=15 nels=10 NSTATE=1
 MXXPAN=10 CVGTOL=1.0e-5 $END
 $ORMAS NSPACE=3 MSTART(1)=3,9,13
 MINE(1)=4,2,0 MAXE(1)=8,6,0 
 QCORR=.FALSE. $END
 $CEEIS ENREF=-76.8257780953 ISCHME=1
 ISTPEX=6 RESTRT=.true. NSEXT(1)=1,0,1 
 M1M2EX(1)=0, 0, 0,
           0, 15, -20, 22, 24, 26, 
           0, 15, -20,
           0, 15, -19, $END
 $DATA
C2H2 (cc-pVDZ).exp.g.. CEEIS with GAMESS
DNH 2

CARBON   6.0     0.0      0.0      0.6013 
 S   8
  1        6665.000000         0.6920000000E-03
  2        1000.000000         0.5329000000E-02
  3        228.0000000         0.2707700000E-01
  4        64.71000000         0.1017180000    
  5        21.06000000         0.2747400000    
  6        7.495000000         0.4485640000    
  7        2.797000000         0.2850740000    
  8       0.5215000000         0.1520400000E-01
 S   8
  1        6665.000000        -0.1460000000E-03
  2        1000.000000        -0.1154000000E-02
  3        228.0000000        -0.5725000000E-02
  4        64.71000000        -0.2331200000E-01
  5        21.06000000        -0.6395500000E-01
  6        7.495000000        -0.1499810000    
  7        2.797000000        -0.1272620000    
  8       0.5215000000         0.5445290000    
 S   1
  1       0.1596000000          1.000000000    
 P   3
  1        9.439000000         0.3810900000E-01
  2        2.002000000         0.2094800000    
  3       0.5456000000         0.5085570000    
 P   1
  1       0.1517000000          1.000000000    
 D   1
  1       0.5500000000          1.000000000    

HYDROGEN  1.0    0.0     0.0     1.6643 
 S   3
  1        13.01000000         0.1968500000E-01
  2        1.962000000         0.1379770000    
  3       0.4446000000         0.4781480000    
 S   1
  1       0.1220000000          1.000000000    
 P   1
  1       0.7270000000          1.000000000    

 $END

 $VEC
 1  1 7.07381286E-01-2.66664229E-04-3.25068792E-03 0.00000000E+00 0.00000000E+00
 1  2 2.33061781E-03 0.00000000E+00 0.00000000E+00 1.05689491E-03-1.00309176E-03
 1  3-1.00309176E-03 2.00618352E-03 0.00000000E+00 0.00000000E+00 0.00000000E+00
 1  4 7.07381286E-01-2.66664229E-04-3.25068792E-03 0.00000000E+00 0.00000000E+00
 1  5-2.33061781E-03 0.00000000E+00 0.00000000E+00-1.05689491E-03-1.00309176E-03
 1  6-1.00309176E-03 2.00618352E-03 0.00000000E+00 0.00000000E+00 0.00000000E+00
 1  7-5.99107868E-03-4.22456582E-04 0.00000000E+00 0.00000000E+00-1.47038911E-03
 1  8-5.99107868E-03-4.22456582E-04 0.00000000E+00 0.00000000E+00 1.47038911E-03
 2  1-7.09981141E-01-3.06210238E-03 8.48890979E-03 0.00000000E+00 0.00000000E+00
 2  2-2.62313227E-03 0.00000000E+00 0.00000000E+00 2.00978907E-03 1.21307212E-03
 2  3 1.21307212E-03-2.42614424E-03 0.00000000E+00 0.00000000E+00 0.00000000E+00
 2  4 7.09981141E-01 3.06210238E-03-8.48890979E-03 0.00000000E+00 0.00000000E+00
 2  5-2.62313227E-03 0.00000000E+00 0.00000000E+00 2.00978907E-03-1.21307212E-03
 2  6-1.21307212E-03 2.42614424E-03 0.00000000E+00 0.00000000E+00 0.00000000E+00
 2  7 4.60727071E-03 5.12923409E-04 0.00000000E+00 0.00000000E+00 1.45277739E-03
 2  8-4.60727071E-03-5.12923409E-04 0.00000000E+00 0.00000000E+00 1.45277739E-03
 3  1-2.45968271E-02 2.80019908E-01 1.66095058E-01 0.00000000E+00 0.00000000E+00
 3  2 3.16676404E-01 0.00000000E+00 0.00000000E+00 5.17931429E-02-6.29410615E-03
 3  3-6.29410615E-03 1.25882123E-02 0.00000000E+00 0.00000000E+00 0.00000000E+00
 3  4-2.45968271E-02 2.80019908E-01 1.66095058E-01 0.00000000E+00 0.00000000E+00
 3  5-3.16676404E-01 0.00000000E+00 0.00000000E+00-5.17931429E-02-6.29410615E-03
 3  6-6.29410615E-03 1.25882123E-02 0.00000000E+00 0.00000000E+00 0.00000000E+00
 3  7-5.49848401E-02-4.52613145E-02 0.00000000E+00 0.00000000E+00 7.68760672E-03
 3  8-5.49848401E-02-4.52613145E-02 0.00000000E+00 0.00000000E+00-7.68760672E-03
 4  1 0.00000000E+00 0.00000000E+00 0.00000000E+00 0.00000000E+00 4.19303436E-01
 4  2 0.00000000E+00 0.00000000E+00 2.49943248E-01 0.00000000E+00 0.00000000E+00
 4  3 0.00000000E+00 0.00000000E+00 0.00000000E+00 0.00000000E+00 2.53134974E-02
 4  4 0.00000000E+00 0.00000000E+00 0.00000000E+00 0.00000000E+00 4.19303436E-01
 4  5 0.00000000E+00 0.00000000E+00 2.49943248E-01 0.00000000E+00 0.00000000E+00
 4  6 0.00000000E+00 0.00000000E+00 0.00000000E+00 0.00000000E+00-2.53134974E-02
 4  7 0.00000000E+00 0.00000000E+00 0.00000000E+00 1.69760089E-02 0.00000000E+00
 4  8 0.00000000E+00 0.00000000E+00 0.00000000E+00 1.69760089E-02 0.00000000E+00
 5  1 0.00000000E+00 0.00000000E+00 0.00000000E+00 4.19303436E-01 0.00000000E+00
 5  2 0.00000000E+00 2.49943248E-01 0.00000000E+00 0.00000000E+00 0.00000000E+00
 5  3 0.00000000E+00 0.00000000E+00 0.00000000E+00 2.53134973E-02 0.00000000E+00
 5  4 0.00000000E+00 0.00000000E+00 0.00000000E+00 4.19303436E-01 0.00000000E+00
 5  5 0.00000000E+00 2.49943248E-01 0.00000000E+00 0.00000000E+00 0.00000000E+00
 5  6 0.00000000E+00 0.00000000E+00 0.00000000E+00-2.53134973E-02 0.00000000E+00
 5  7 0.00000000E+00 0.00000000E+00 1.69760089E-02 0.00000000E+00 0.00000000E+00
 5  8 0.00000000E+00 0.00000000E+00 1.69760089E-02 0.00000000E+00 0.00000000E+00
 6  1 0.00000000E+00 0.00000000E+00 0.00000000E+00-6.45805708E-01 0.00000000E+00
 6  2 0.00000000E+00-2.82616672E-01 0.00000000E+00 0.00000000E+00 0.00000000E+00
 6  3 0.00000000E+00 0.00000000E+00 0.00000000E+00 4.52104381E-02 0.00000000E+00
 6  4 0.00000000E+00 0.00000000E+00 0.00000000E+00 6.45805708E-01 0.00000000E+00
 6  5 0.00000000E+00 2.82616672E-01 0.00000000E+00 0.00000000E+00 0.00000000E+00
 6  6 0.00000000E+00 0.00000000E+00 0.00000000E+00 4.52104381E-02 0.00000000E+00
 6  7 0.00000000E+00 0.00000000E+00-2.14577559E-02 0.00000000E+00 0.00000000E+00
 6  8 0.00000000E+00 0.00000000E+00 2.14577559E-02 0.00000000E+00 0.00000000E+00
 7  1 0.00000000E+00 0.00000000E+00 0.00000000E+00 0.00000000E+00-6.45805708E-01
 7  2 0.00000000E+00 0.00000000E+00-2.82616672E-01 0.00000000E+00 0.00000000E+00
 7  3 0.00000000E+00 0.00000000E+00 0.00000000E+00 0.00000000E+00 4.52104381E-02
 7  4 0.00000000E+00 0.00000000E+00 0.00000000E+00 0.00000000E+00 6.45805708E-01
 7  5 0.00000000E+00 0.00000000E+00 2.82616672E-01 0.00000000E+00 0.00000000E+00
 7  6 0.00000000E+00 0.00000000E+00 0.00000000E+00 0.00000000E+00 4.52104381E-02
 7  7 0.00000000E+00 0.00000000E+00 0.00000000E+00-2.14577559E-02 0.00000000E+00
 7  8 0.00000000E+00 0.00000000E+00 0.00000000E+00 2.14577559E-02 0.00000000E+00
 8  1 1.36075567E-01 5.21215112E-01 2.75151623E-01 0.00000000E+00 0.00000000E+00
 8  2 7.86858839E-01 0.00000000E+00 0.00000000E+00-7.58013320E-02 8.25120027E-02
 8  3 8.25120027E-02-1.65024005E-01 0.00000000E+00 0.00000000E+00 0.00000000E+00
 8  4-1.36075567E-01-5.21215112E-01-2.75151623E-01 0.00000000E+00 0.00000000E+00
 8  5 7.86858839E-01 0.00000000E+00 0.00000000E+00-7.58013320E-02-8.25120027E-02
 8  6-8.25120027E-02 1.65024005E-01 0.00000000E+00 0.00000000E+00 0.00000000E+00
 8  7-5.22777761E-02 2.87554013E-03 0.00000000E+00 0.00000000E+00-3.34842980E-02
 8  8 5.22777761E-02-2.87554013E-03 0.00000000E+00 0.00000000E+00-3.34842980E-02
 9  1-8.95660682E-03 2.12062727E-01 3.16085012E-01 0.00000000E+00 0.00000000E+00
 9  2-1.98337517E-01 0.00000000E+00 0.00000000E+00 4.19273552E-02-2.78870018E-03
 9  3-2.78870018E-03 5.57740036E-03 0.00000000E+00 0.00000000E+00 0.00000000E+00
 9  4 8.95660682E-03-2.12062727E-01-3.16085012E-01 0.00000000E+00 0.00000000E+00
 9  5-1.98337517E-01 0.00000000E+00 0.00000000E+00 4.19273552E-02 2.78870018E-03
 9  6 2.78870018E-03-5.57740036E-03 0.00000000E+00 0.00000000E+00 0.00000000E+00
 9  7 2.93148128E-01 9.98884977E-02 0.00000000E+00 0.00000000E+00 2.48588115E-02
 9  8-2.93148128E-01-9.98884977E-02 0.00000000E+00 0.00000000E+00 2.48588115E-02
10  1-3.36717892E-03 1.57638864E-01 1.22994156E-01 0.00000000E+00 0.00000000E+00
10  2-2.56466859E-01 0.00000000E+00 0.00000000E+00-5.52967918E-02-6.68792763E-03
10  3-6.68792763E-03 1.33758553E-02 0.00000000E+00 0.00000000E+00 0.00000000E+00
10  4-3.36717892E-03 1.57638864E-01 1.22994156E-01 0.00000000E+00 0.00000000E+00
10  5 2.56466859E-01 0.00000000E+00 0.00000000E+00 5.52967918E-02-6.68792763E-03
10  6-6.68792763E-03 1.33758553E-02 0.00000000E+00 0.00000000E+00 0.00000000E+00
10  7 3.03963752E-01 9.71915772E-02 0.00000000E+00 0.00000000E+00 2.15127499E-02
10  8 3.03963752E-01 9.71915772E-02 0.00000000E+00 0.00000000E+00-2.15127499E-02
11  1 1.40291568E-01 5.10128013E-01 4.50133713E-01 0.00000000E+00 0.00000000E+00
11  2-5.41302830E-01 0.00000000E+00 0.00000000E+00 2.72011402E-01-3.00816988E-02
11  3-3.00816988E-02 6.01633976E-02 0.00000000E+00 0.00000000E+00 0.00000000E+00
11  4-1.40291568E-01-5.10128013E-01-4.50133713E-01 0.00000000E+00 0.00000000E+00
11  5-5.41302830E-01 0.00000000E+00 0.00000000E+00 2.72011402E-01 3.00816988E-02
11  6 3.00816988E-02-6.01633976E-02 0.00000000E+00 0.00000000E+00 0.00000000E+00
11  7-6.09620704E-01-1.36646895E-01 0.00000000E+00 0.00000000E+00-3.60702896E-04
11  8 6.09620704E-01 1.36646895E-01 0.00000000E+00 0.00000000E+00-3.60702896E-04
12  1-1.11088716E-01-3.37145567E-01-1.60826558E-01 0.00000000E+00 0.00000000E+00
12  2 5.38147091E-01 0.00000000E+00 0.00000000E+00-9.61530331E-02-4.95217945E-02
12  3-4.95217945E-02 9.90435890E-02 0.00000000E+00 0.00000000E+00 0.00000000E+00
12  4-1.11088716E-01-3.37145567E-01-1.60826558E-01 0.00000000E+00 0.00000000E+00
12  5-5.38147091E-01 0.00000000E+00 0.00000000E+00 9.61530331E-02-4.95217945E-02
12  6-4.95217945E-02 9.90435890E-02 0.00000000E+00 0.00000000E+00 0.00000000E+00
12  7 5.51156980E-01 1.49276842E-01 0.00000000E+00 0.00000000E+00-4.88657780E-03
12  8 5.51156980E-01 1.49276842E-01 0.00000000E+00 0.00000000E+00 4.88657780E-03
13  1 0.00000000E+00 0.00000000E+00 0.00000000E+00-4.38488998E-01-3.61783580E-05
13  2 0.00000000E+00 4.86982564E-01 4.01794108E-05 0.00000000E+00 0.00000000E+00
13  3 0.00000000E+00 0.00000000E+00 0.00000000E+00-3.29720945E-01-2.72042456E-05
13  4 0.00000000E+00 0.00000000E+00 0.00000000E+00-4.38488998E-01-3.61783580E-05
13  5 0.00000000E+00 4.86982564E-01 4.01794107E-05 0.00000000E+00 0.00000000E+00
13  6 0.00000000E+00 0.00000000E+00 0.00000000E+00 3.29720945E-01 2.72042456E-05
13  7 0.00000000E+00 0.00000000E+00 7.77233266E-02 6.41270899E-06 0.00000000E+00
13  8 0.00000000E+00 0.00000000E+00 7.77233266E-02 6.41270899E-06 0.00000000E+00
14  1 0.00000000E+00 0.00000000E+00 0.00000000E+00 3.61783580E-05-4.38488998E-01
14  2 0.00000000E+00-4.01794107E-05 4.86982564E-01 0.00000000E+00 0.00000000E+00
14  3 0.00000000E+00 0.00000000E+00 0.00000000E+00 2.72042456E-05-3.29720945E-01
14  4 0.00000000E+00 0.00000000E+00 0.00000000E+00 3.61783580E-05-4.38488998E-01
14  5 0.00000000E+00-4.01794107E-05 4.86982564E-01 0.00000000E+00 0.00000000E+00
14  6 0.00000000E+00 0.00000000E+00 0.00000000E+00-2.72042456E-05 3.29720945E-01
14  7 0.00000000E+00 0.00000000E+00-6.41270898E-06 7.77233266E-02 0.00000000E+00
14  8 0.00000000E+00 0.00000000E+00-6.41270899E-06 7.77233266E-02 0.00000000E+00
15  1 2.22591202E-01 6.45539186E-01-4.74125201E-01 0.00000000E+00 0.00000000E+00
15  2-1.45588840E-01 0.00000000E+00 0.00000000E+00-7.71887518E-02-1.88204609E-01
15  3-1.88204610E-01 3.76409220E-01 0.00000000E+00 0.00000000E+00 0.00000000E+00
15  4 2.22591202E-01 6.45539186E-01-4.74125201E-01 0.00000000E+00 0.00000000E+00
15  5 1.45588840E-01 0.00000000E+00 0.00000000E+00 7.71887518E-02-1.88204609E-01
15  6-1.88204610E-01 3.76409220E-01 0.00000000E+00 0.00000000E+00 0.00000000E+00
15  7-2.71607668E-02-2.28848082E-01 0.00000000E+00 0.00000000E+00 5.29252797E-02
15  8-2.71607668E-02-2.28848082E-01 0.00000000E+00 0.00000000E+00-5.29252797E-02
16  1 0.00000000E+00 0.00000000E+00 0.00000000E+00 0.00000000E+00 0.00000000E+00
16  2 0.00000000E+00 0.00000000E+00 0.00000000E+00 0.00000000E+00 2.65940166E-09
16  3-2.65940109E-09 0.00000000E+00 6.34579266E-01 0.00000000E+00 0.00000000E+00
16  4 0.00000000E+00 0.00000000E+00 0.00000000E+00 0.00000000E+00 0.00000000E+00
16  5 0.00000000E+00 0.00000000E+00 0.00000000E+00 0.00000000E+00 2.65940166E-09
16  6-2.65940109E-09 0.00000000E+00 6.34579266E-01 0.00000000E+00 0.00000000E+00
16  7 0.00000000E+00 0.00000000E+00 0.00000000E+00 0.00000000E+00 0.00000000E+00
16  8 0.00000000E+00 0.00000000E+00 0.00000000E+00 0.00000000E+00 0.00000000E+00
17  1-1.27681472E-10-4.32385268E-10 5.80245974E-10 0.00000000E+00 0.00000000E+00
17  2 2.14091026E-10 0.00000000E+00 0.00000000E+00-2.56471944E-10 5.49561765E-01
17  3-5.49561765E-01-4.29415620E-10-3.07081217E-09 0.00000000E+00 0.00000000E+00
17  4-1.27681472E-10-4.32385268E-10 5.80245974E-10 0.00000000E+00 0.00000000E+00
17  5-2.14091026E-10 0.00000000E+00 0.00000000E+00 2.56471944E-10 5.49561765E-01
17  6-5.49561765E-01-4.29415620E-10-3.07081222E-09 0.00000000E+00 0.00000000E+00
17  7 7.98188558E-11-1.06557959E-10 0.00000000E+00 0.00000000E+00-4.49586927E-11
17  8 7.98188558E-11-1.06557959E-10 0.00000000E+00 0.00000000E+00 4.49586927E-11
18  1 0.00000000E+00 0.00000000E+00 0.00000000E+00 5.30765956E-01 2.37279016E-05
18  2 0.00000000E+00-3.94280711E-01-1.76263263E-05 0.00000000E+00 0.00000000E+00
18  3 0.00000000E+00 0.00000000E+00 0.00000000E+00-4.18425257E-01-1.87057087E-05
18  4 0.00000000E+00 0.00000000E+00 0.00000000E+00 5.30765956E-01 2.37279016E-05
18  5 0.00000000E+00-3.94280711E-01-1.76263264E-05 0.00000000E+00 0.00000000E+00
18  6 0.00000000E+00 0.00000000E+00 0.00000000E+00 4.18425257E-01 1.87057087E-05
18  7 0.00000000E+00 0.00000000E+00 1.53954775E-01 6.88255102E-06 0.00000000E+00
18  8 0.00000000E+00 0.00000000E+00 1.53954775E-01 6.88255101E-06 0.00000000E+00
19  1 0.00000000E+00 0.00000000E+00 0.00000000E+00-2.37279016E-05 5.30765956E-01
19  2 0.00000000E+00 1.76263263E-05-3.94280711E-01 0.00000000E+00 0.00000000E+00
19  3 0.00000000E+00 0.00000000E+00 0.00000000E+00 1.87057087E-05-4.18425257E-01
19  4 0.00000000E+00 0.00000000E+00 0.00000000E+00-2.37279016E-05 5.30765956E-01
19  5 0.00000000E+00 1.76263263E-05-3.94280711E-01 0.00000000E+00 0.00000000E+00
19  6 0.00000000E+00 0.00000000E+00 0.00000000E+00-1.87057087E-05 4.18425257E-01
19  7 0.00000000E+00 0.00000000E+00-6.88255099E-06 1.53954775E-01 0.00000000E+00
19  8 0.00000000E+00 0.00000000E+00-6.88255102E-06 1.53954775E-01 0.00000000E+00
20  1 3.66009558E-01 8.41750155E-01 1.24792217E+00 0.00000000E+00 0.00000000E+00
20  2 6.51342599E-01 0.00000000E+00 0.00000000E+00 1.76593587E+00-1.51816150E-01
20  3-1.51816149E-01 3.03632299E-01 0.00000000E+00 0.00000000E+00 0.00000000E+00
20  4-3.66009558E-01-8.41750155E-01-1.24792217E+00 0.00000000E+00 0.00000000E+00
20  5 6.51342599E-01 0.00000000E+00 0.00000000E+00 1.76593587E+00 1.51816150E-01
20  6 1.51816149E-01-3.03632299E-01 0.00000000E+00 0.00000000E+00 0.00000000E+00
20  7 7.62600380E-01 2.43258715E-01 0.00000000E+00 0.00000000E+00 1.52561768E-01
20  8-7.62600380E-01-2.43258715E-01 0.00000000E+00 0.00000000E+00 1.52561768E-01
21  1 0.00000000E+00 0.00000000E+00 0.00000000E+00 6.17925110E-01 7.66770331E-05
21  2 0.00000000E+00-3.41908578E-01-4.24267196E-05 0.00000000E+00 0.00000000E+00
21  3 0.00000000E+00 0.00000000E+00 0.00000000E+00 6.66155795E-01 8.26618777E-05
21  4 0.00000000E+00 0.00000000E+00 0.00000000E+00-6.17925110E-01-7.66770331E-05
21  5 0.00000000E+00 3.41908578E-01 4.24267196E-05 0.00000000E+00 0.00000000E+00
21  6 0.00000000E+00 0.00000000E+00 0.00000000E+00 6.66155795E-01 8.26618777E-05
21  7 0.00000000E+00 0.00000000E+00-2.54079747E-01-3.15282239E-05 0.00000000E+00
21  8 0.00000000E+00 0.00000000E+00 2.54079747E-01 3.15282238E-05 0.00000000E+00
22  1 0.00000000E+00 0.00000000E+00 0.00000000E+00-7.66770331E-05 6.17925110E-01
22  2 0.00000000E+00 4.24267195E-05-3.41908577E-01 0.00000000E+00 0.00000000E+00
22  3 0.00000000E+00 0.00000000E+00 0.00000000E+00-8.26618778E-05 6.66155795E-01
22  4 0.00000000E+00 0.00000000E+00 0.00000000E+00 7.66770331E-05-6.17925110E-01
22  5 0.00000000E+00-4.24267196E-05 3.41908577E-01 0.00000000E+00 0.00000000E+00
22  6 0.00000000E+00 0.00000000E+00 0.00000000E+00-8.26618777E-05 6.66155795E-01
22  7 0.00000000E+00 0.00000000E+00 3.15282238E-05-2.54079748E-01 0.00000000E+00
22  8 0.00000000E+00 0.00000000E+00-3.15282238E-05 2.54079748E-01 0.00000000E+00
23  1 2.43074274E-01 5.75729446E-01 6.14805099E-01 0.00000000E+00 0.00000000E+00
23  2-8.04607355E-02 0.00000000E+00 0.00000000E+00-1.44941392E+00-8.75219329E-02
23  3-8.75219328E-02 1.75043866E-01 0.00000000E+00 0.00000000E+00 0.00000000E+00
23  4 2.43074274E-01 5.75729446E-01 6.14805099E-01 0.00000000E+00 0.00000000E+00
23  5 8.04607355E-02 0.00000000E+00 0.00000000E+00 1.44941392E+00-8.75219329E-02
23  6-8.75219328E-02 1.75043866E-01 0.00000000E+00 0.00000000E+00 0.00000000E+00
23  7-1.17960823E+00-1.02796572E-01 0.00000000E+00 0.00000000E+00-3.40577324E-01
23  8-1.17960823E+00-1.02796572E-01 0.00000000E+00 0.00000000E+00 3.40577324E-01
24  1 0.00000000E+00 0.00000000E+00 0.00000000E+00 0.00000000E+00 0.00000000E+00
24  2 0.00000000E+00 0.00000000E+00 0.00000000E+00 0.00000000E+00 4.84226335E-09
24  3-4.84226254E-09 0.00000000E+00 8.11987575E-01 0.00000000E+00 0.00000000E+00
24  4 0.00000000E+00 0.00000000E+00 0.00000000E+00 0.00000000E+00 0.00000000E+00
24  5 0.00000000E+00 0.00000000E+00 0.00000000E+00 0.00000000E+00-4.84226257E-09
24  6 4.84226339E-09 0.00000000E+00-8.11987575E-01 0.00000000E+00 0.00000000E+00
24  7 0.00000000E+00 0.00000000E+00 0.00000000E+00 0.00000000E+00 0.00000000E+00
24  8 0.00000000E+00 0.00000000E+00 0.00000000E+00 0.00000000E+00 0.00000000E+00
25  1-9.49864443E-10-2.00813619E-09 5.21289856E-09 0.00000000E+00 0.00000000E+00
25  2-3.71252707E-10 0.00000000E+00 0.00000000E+00 2.05440929E-09-7.03201867E-01
25  3 7.03201868E-01-7.17199836E-10 5.59136365E-09 0.00000000E+00 0.00000000E+00
25  4 9.49857651E-10 2.00812023E-09-5.21291532E-09 0.00000000E+00 0.00000000E+00
25  5-3.71254659E-10 0.00000000E+00 0.00000000E+00 2.05437047E-09 7.03201867E-01
25  6-7.03201868E-01 7.17195495E-10-5.59136365E-09 0.00000000E+00 0.00000000E+00
25  7 6.23940698E-10-3.35596432E-10 0.00000000E+00 0.00000000E+00 2.78740404E-10
25  8-6.23909241E-10 3.35600420E-10 0.00000000E+00 0.00000000E+00 2.78730429E-10
26  1 0.00000000E+00 0.00000000E+00 0.00000000E+00-2.59306067E-01 8.60102516E-05
26  2 0.00000000E+00 1.51359073E+00-5.02048877E-04 0.00000000E+00 0.00000000E+00
26  3 0.00000000E+00 0.00000000E+00 0.00000000E+00 5.15117635E-01-1.70861399E-04
26  4 0.00000000E+00 0.00000000E+00 0.00000000E+00 2.59306067E-01-8.60102516E-05
26  5 0.00000000E+00-1.51359073E+00 5.02048877E-04 0.00000000E+00 0.00000000E+00
26  6 0.00000000E+00 0.00000000E+00 0.00000000E+00 5.15117635E-01-1.70861399E-04
26  7 0.00000000E+00 0.00000000E+00-2.52664621E-01 8.38073242E-05 0.00000000E+00
26  8 0.00000000E+00 0.00000000E+00 2.52664621E-01-8.38073243E-05 0.00000000E+00
27  1 0.00000000E+00 0.00000000E+00 0.00000000E+00 8.60102515E-05 2.59306067E-01
27  2 0.00000000E+00-5.02048877E-04-1.51359073E+00 0.00000000E+00 0.00000000E+00
27  3 0.00000000E+00 0.00000000E+00 0.00000000E+00-1.70861399E-04-5.15117634E-01
27  4 0.00000000E+00 0.00000000E+00 0.00000000E+00-8.60102515E-05-2.59306067E-01
27  5 0.00000000E+00 5.02048877E-04 1.51359073E+00 0.00000000E+00 0.00000000E+00
27  6 0.00000000E+00 0.00000000E+00 0.00000000E+00-1.70861399E-04-5.15117634E-01
27  7 0.00000000E+00 0.00000000E+00 8.38073243E-05 2.52664621E-01 0.00000000E+00
27  8 0.00000000E+00 0.00000000E+00-8.38073242E-05-2.52664621E-01 0.00000000E+00
28  1 5.75887387E-01 1.04850127E+00-9.96237505E-01 0.00000000E+00 0.00000000E+00
28  2 2.53212785E-01 0.00000000E+00 0.00000000E+00-1.82724338E-02 4.63255488E-01
28  3 4.63255488E-01-9.26510976E-01 0.00000000E+00 0.00000000E+00 0.00000000E+00
28  4 5.75887387E-01 1.04850127E+00-9.96237505E-01 0.00000000E+00 0.00000000E+00
28  5-2.53212785E-01 0.00000000E+00 0.00000000E+00 1.82724338E-02 4.63255488E-01
28  6 4.63255488E-01-9.26510976E-01 0.00000000E+00 0.00000000E+00 0.00000000E+00
28  7 7.99018495E-01-8.95830116E-02 0.00000000E+00 0.00000000E+00-1.43754889E-01
28  8 7.99018495E-01-8.95830116E-02 0.00000000E+00 0.00000000E+00 1.43754889E-01
29  1 0.00000000E+00 0.00000000E+00 0.00000000E+00 1.45855803E-05-2.54011175E-01
29  2 0.00000000E+00 6.56943508E-06-1.14408193E-01 0.00000000E+00 0.00000000E+00
29  3 0.00000000E+00 0.00000000E+00 0.00000000E+00-2.58848605E-05 4.50790692E-01
29  4 0.00000000E+00 0.00000000E+00 0.00000000E+00 1.45855804E-05-2.54011175E-01
29  5 0.00000000E+00 6.56943482E-06-1.14408193E-01 0.00000000E+00 0.00000000E+00
29  6 0.00000000E+00 0.00000000E+00 0.00000000E+00 2.58848607E-05-4.50790692E-01
29  7 0.00000000E+00 0.00000000E+00-4.71556540E-05 8.21226361E-01 0.00000000E+00
29  8 0.00000000E+00 0.00000000E+00-4.71556540E-05 8.21226361E-01 0.00000000E+00
30  1 0.00000000E+00 0.00000000E+00 0.00000000E+00-2.54011175E-01-1.45855804E-05
30  2 0.00000000E+00-1.14408193E-01-6.56943492E-06 0.00000000E+00 0.00000000E+00
30  3 0.00000000E+00 0.00000000E+00 0.00000000E+00 4.50790692E-01 2.58848606E-05
30  4 0.00000000E+00 0.00000000E+00 0.00000000E+00-2.54011175E-01-1.45855803E-05
30  5 0.00000000E+00-1.14408193E-01-6.56943497E-06 0.00000000E+00 0.00000000E+00
30  6 0.00000000E+00 0.00000000E+00 0.00000000E+00-4.50790692E-01-2.58848606E-05
30  7 0.00000000E+00 0.00000000E+00 8.21226361E-01 4.71556540E-05 0.00000000E+00
30  8 0.00000000E+00 0.00000000E+00 8.21226361E-01 4.71556540E-05 0.00000000E+00
31  1 4.40063198E-01 8.80127760E-01 1.18530668E+00 0.00000000E+00 0.00000000E+00
31  2 1.10812557E+00 0.00000000E+00 0.00000000E+00-2.44157234E-01-6.80929948E-01
31  3-6.80929947E-01 1.36185990E+00 0.00000000E+00 0.00000000E+00 0.00000000E+00
31  4-4.40063198E-01-8.80127760E-01-1.18530668E+00 0.00000000E+00 0.00000000E+00
31  5 1.10812557E+00 0.00000000E+00 0.00000000E+00-2.44157234E-01 6.80929948E-01
31  6 6.80929947E-01-1.36185990E+00 0.00000000E+00 0.00000000E+00 0.00000000E+00
31  7-1.09016337E+00 7.55315583E-02 0.00000000E+00 0.00000000E+00 8.84643239E-02
31  8 1.09016337E+00-7.55315583E-02 0.00000000E+00 0.00000000E+00 8.84643239E-02
32  1 8.46696333E-01 1.74902188E+00-4.95532181E+00 0.00000000E+00 0.00000000E+00
32  2-1.62929787E-01 0.00000000E+00 0.00000000E+00-2.36461292E+00-3.37149207E-01
32  3-3.37149206E-01 6.74298413E-01 0.00000000E+00 0.00000000E+00 0.00000000E+00
32  4-8.46696333E-01-1.74902188E+00 4.95532181E+00 0.00000000E+00 0.00000000E+00
32  5-1.62929787E-01 0.00000000E+00 0.00000000E+00-2.36461292E+00 3.37149207E-01
32  6 3.37149206E-01-6.74298413E-01 0.00000000E+00 0.00000000E+00 0.00000000E+00
32  7-1.00077562E+00 1.67415338E-01 0.00000000E+00 0.00000000E+00-6.98582531E-01
32  8 1.00077562E+00-1.67415338E-01 0.00000000E+00 0.00000000E+00-6.98582531E-01
33  1-1.02256624E-01-3.38094832E-01 1.67042799E+00 0.00000000E+00 0.00000000E+00
33  2 8.84868973E-01 0.00000000E+00 0.00000000E+00-1.93071087E+00 3.06119517E-01
33  3 3.06119517E-01-6.12239035E-01 0.00000000E+00 0.00000000E+00 0.00000000E+00
33  4-1.02256624E-01-3.38094832E-01 1.67042799E+00 0.00000000E+00 0.00000000E+00
33  5-8.84868973E-01 0.00000000E+00 0.00000000E+00 1.93071087E+00 3.06119517E-01
33  6 3.06119517E-01-6.12239035E-01 0.00000000E+00 0.00000000E+00 0.00000000E+00
33  7 3.80700136E-01-1.72278770E+00 0.00000000E+00 0.00000000E+00 6.64047770E-01
33  8 3.80700136E-01-1.72278770E+00 0.00000000E+00 0.00000000E+00-6.64047770E-01
34  1 0.00000000E+00 0.00000000E+00 0.00000000E+00 1.65822323E-04 2.68815146E-01
34  2 0.00000000E+00 4.46260756E-05 7.23434866E-02 0.00000000E+00 0.00000000E+00
34  3 0.00000000E+00 0.00000000E+00 0.00000000E+00 7.59009065E-04 1.23043224E+00
34  4 0.00000000E+00 0.00000000E+00 0.00000000E+00-1.65822323E-04-2.68815146E-01
34  5 0.00000000E+00-4.46260756E-05-7.23434866E-02 0.00000000E+00 0.00000000E+00
34  6 0.00000000E+00 0.00000000E+00 0.00000000E+00 7.59009065E-04 1.23043224E+00
34  7 0.00000000E+00 0.00000000E+00 5.38216671E-04 8.72504921E-01 0.00000000E+00
34  8 0.00000000E+00 0.00000000E+00-5.38216671E-04-8.72504921E-01 0.00000000E+00
35  1 0.00000000E+00 0.00000000E+00 0.00000000E+00 2.68815146E-01-1.65822323E-04
35  2 0.00000000E+00 7.23434866E-02-4.46260757E-05 0.00000000E+00 0.00000000E+00
35  3 0.00000000E+00 0.00000000E+00 0.00000000E+00 1.23043224E+00-7.59009065E-04
35  4 0.00000000E+00 0.00000000E+00 0.00000000E+00-2.68815146E-01 1.65822323E-04
35  5 0.00000000E+00-7.23434866E-02 4.46260757E-05 0.00000000E+00 0.00000000E+00
35  6 0.00000000E+00 0.00000000E+00 0.00000000E+00 1.23043224E+00-7.59009065E-04
35  7 0.00000000E+00 0.00000000E+00 8.72504921E-01-5.38216671E-04 0.00000000E+00
35  8 0.00000000E+00 0.00000000E+00-8.72504921E-01 5.38216671E-04 0.00000000E+00
36  1-2.25856921E-01-2.99146076E-01 2.61404223E+00 0.00000000E+00 0.00000000E+00
36  2-6.57096024E-01 0.00000000E+00 0.00000000E+00-1.41219459E+00-3.99448429E-01
36  3-3.99448429E-01 7.98896859E-01 0.00000000E+00 0.00000000E+00 0.00000000E+00
36  4-2.25856921E-01-2.99146076E-01 2.61404223E+00 0.00000000E+00 0.00000000E+00
36  5 6.57096024E-01 0.00000000E+00 0.00000000E+00 1.41219459E+00-3.99448429E-01
36  6-3.99448429E-01 7.98896859E-01 0.00000000E+00 0.00000000E+00 0.00000000E+00
36  7-9.24444652E-01-2.08439781E+00 0.00000000E+00 0.00000000E+00-1.08018838E+00
36  8-9.24444652E-01-2.08439781E+00 0.00000000E+00 0.00000000E+00 1.08018838E+00
37  1-3.50039801E-01-6.64621312E-01 9.23469838E+00 0.00000000E+00 0.00000000E+00
37  2-5.70023656E-02 0.00000000E+00 0.00000000E+00 8.60758568E+00 1.50658812E-01
37  3 1.50658812E-01-3.01317624E-01 0.00000000E+00 0.00000000E+00 0.00000000E+00
37  4 3.50039801E-01 6.64621312E-01-9.23469838E+00 0.00000000E+00 0.00000000E+00
37  5-5.70023655E-02 0.00000000E+00 0.00000000E+00 8.60758568E+00-1.50658812E-01
37  6-1.50658812E-01 3.01317624E-01 0.00000000E+00 0.00000000E+00 0.00000000E+00
37  7 8.01476724E-01 4.06206792E+00 0.00000000E+00 0.00000000E+00 4.90381209E-01
37  8-8.01476724E-01-4.06206792E+00 0.00000000E+00 0.00000000E+00 4.90381209E-01
38  1-2.54775621E-01-6.02387802E-01-1.67938926E+01 0.00000000E+00 0.00000000E+00
38  2-3.30825713E-01 0.00000000E+00 0.00000000E+00-9.89894498E+00 9.44938167E-01
38  3 9.44938167E-01-1.88987633E+00 0.00000000E+00 0.00000000E+00 0.00000000E+00
38  4 2.54775621E-01 6.02387802E-01 1.67938926E+01 0.00000000E+00 0.00000000E+00
38  5-3.30825713E-01 0.00000000E+00 0.00000000E+00-9.89894498E+00-9.44938167E-01
38  6-9.44938167E-01 1.88987633E+00 0.00000000E+00 0.00000000E+00 0.00000000E+00
38  7 8.67692188E-01-2.18944136E+00 0.00000000E+00 0.00000000E+00 1.34000409E+00
38  8-8.67692188E-01 2.18944136E+00 0.00000000E+00 0.00000000E+00 1.34000409E+00
 $END   

 $CEDATA
13      0.00000000      0.00000000      0.00000000      0.00000000      0.00000000
14    -76.99416398    -76.99432745    -76.99434513    -76.99434513    -76.99434513
15    -77.00824014    -77.00859787    -77.00868109    -77.00868261    -77.00868268
16    -77.01764520    -77.01812843    -77.01824296    -77.01824482    -77.01824495
17    -77.03029232    -77.03101211    -77.03122133    -77.03122432    -77.03122460
18    -77.03885571    -77.03974262    -77.04001349    -77.04001781    -77.04001829
19    -77.04813161    -77.04923160    -77.04958479    -77.04959104    -77.04959179
20    -77.05522865    -77.05648698    -77.05690621    -77.05691436      0.00000000
21      0.00000000      0.00000000      0.00000000      0.00000000      0.00000000
22    -77.07012053    -77.07175148    -77.07230392      0.00000000      0.00000000
23      0.00000000      0.00000000      0.00000000      0.00000000      0.00000000
24    -77.08136446    -77.08337108    -77.08406194      0.00000000      0.00000000
25      0.00000000      0.00000000      0.00000000      0.00000000      0.00000000
26    -77.08921600    -77.09149326    -77.09225849      0.00000000      0.00000000
27      0.00000000      0.00000000      0.00000000      0.00000000      0.00000000
28      0.00000000      0.00000000      0.00000000      0.00000000      0.00000000
29      0.00000000      0.00000000      0.00000000      0.00000000      0.00000000
30      0.00000000      0.00000000      0.00000000      0.00000000      0.00000000
31      0.00000000      0.00000000      0.00000000      0.00000000      0.00000000
32      0.00000000      0.00000000      0.00000000      0.00000000      0.00000000
33      0.00000000      0.00000000      0.00000000      0.00000000      0.00000000
34      0.00000000      0.00000000      0.00000000      0.00000000      0.00000000
35      0.00000000      0.00000000      0.00000000      0.00000000      0.00000000
36      0.00000000      0.00000000      0.00000000      0.00000000      0.00000000
37      0.00000000      0.00000000      0.00000000      0.00000000      0.00000000
38    -77.10605190    -77.10899734      0.00000000      0.00000000      0.00000000
 $END

