!
!     FF_ceeisTZ2.inp
!     ----------------------------
!  CEEIS approximation of FCI energy
! for F2 molecule at the geometry R=1.41193 A
! (experimental) for cc-pVTZ basis.
!
!  The reference function used here is:
!  FORS [14 e- in 8 orbitals] type.
!
! This is a restart run with the
! specified extrapolation ranges
! for m-values employing up to x=8
! excitations: 
!
!    TOTAL ENERGY ACCOUNTING
!   CONTR FROM EXCIT LEVEL  2: -.5135107502
!   CONTR FROM EXCIT LEVEL  3: -.0164946100
!   CONTR FROM EXCIT LEVEL  4: -.0142168708
!   CONTR FROM EXCIT LEVEL  5: -.0007034341
!   CONTR FROM EXCIT LEVEL  6: -.0002174566
!   CONTR FROM EXCIT LEVEL  7: -.0000088698
!   CONTR FROM EXCIT LEVEL  8: -.0000018225
!   -----------------------------------------
!   CONTR OF ALL EXCITATIONS:  -.5451538139
!   REFERENCE ENERGY      : -198.7520434898
!   TOTAL ENERGY          : -199.2971973037
!
! (This value is reported in Table 4 of
! the MS-1(on F2 molecule)(submitted to JCP)
!
!
 $CONTRL SCFTYP=NONE CITYP=ORMAS RUNTYP=ENERGY ISPHER=1 NPRINT=-5 $END
 $SYSTEM mwords=495 $END
 $BASIS  GBASIS=CCT $END
 $GUESS  GUESS=MOREAD NORB=60 PURIFY=.TRUE. $END
 $CIDET  ncore=2 nact=19 nels=14 NSTATE=1
         MXXPAN=10 CVGTOL=1.0e-5 $END
 $ORMAS  NSPACE=2 MSTART(1)=3,11
         MINE(1)=14,0 MAXE(1)=14,0 $END
 $CEEIS  ENREF=-198.7520434898 ISCHME=1
         ISTPEX=8 RESTRT=.true. NSEXT(1)=1,1 
         M1M2EX(1)=0, 0, 0,
                   0, 33, -39, 
                   0, 22, -26,
                   0, 18, -21,  
                   0, 17, -19,  
                   0, 17, -19, 0  $END
 $DATA
FF...(cc-pVTZ)...(r=1.41193)geom...R(FF)=1.41193 A
DNH 2 

FLUORINE  9.0   0.0    0.0     0.705965 
 $END

 $VEC   
 1  1 6.90364455E-01 8.58861008E-05 3.03997156E-02 1.56023759E-03 0.00000000E+00
 1  2 0.00000000E+00 7.94444540E-04 0.00000000E+00 0.00000000E+00-3.11160839E-04
 1  3 0.00000000E+00 0.00000000E+00 1.97715229E-04 8.82662995E-05 8.82662995E-05
 1  4-1.76532599E-04 0.00000000E+00 0.00000000E+00 0.00000000E+00-3.34275643E-05
 1  5-3.34275643E-05 6.68551287E-05 0.00000000E+00 0.00000000E+00 0.00000000E+00
 1  6 0.00000000E+00 0.00000000E+00 1.04815096E-04 0.00000000E+00-7.03121038E-05
 1  7 0.00000000E+00-7.03121038E-05 0.00000000E+00 0.00000000E+00 0.00000000E+00
 1  8 6.90364455E-01 8.58861008E-05 3.03997156E-02 1.56023759E-03 0.00000000E+00
 1  9 0.00000000E+00-7.94444540E-04 0.00000000E+00 0.00000000E+00 3.11160839E-04
 1 10 0.00000000E+00 0.00000000E+00-1.97715229E-04 8.82662995E-05 8.82662995E-05
 1 11-1.76532599E-04 0.00000000E+00 0.00000000E+00 0.00000000E+00-3.34275643E-05
 1 12-3.34275643E-05 6.68551287E-05 0.00000000E+00 0.00000000E+00 0.00000000E+00
 1 13 0.00000000E+00 0.00000000E+00-1.04815096E-04 0.00000000E+00 7.03121038E-05
 1 14 0.00000000E+00 7.03121038E-05 0.00000000E+00 0.00000000E+00 0.00000000E+00
 2  1 6.90064650E-01-4.06242918E-04 3.06683488E-02 2.30203166E-03 0.00000000E+00
 2  2 0.00000000E+00 8.96400537E-04 0.00000000E+00 0.00000000E+00-7.92083778E-04
 2  3 0.00000000E+00 0.00000000E+00 5.58949950E-04 4.58097823E-05 4.58097823E-05
 2  4-9.16195647E-05 0.00000000E+00 0.00000000E+00 0.00000000E+00 2.17125731E-04
 2  5 2.17125731E-04-4.34251463E-04 0.00000000E+00 0.00000000E+00 0.00000000E+00
 2  6 0.00000000E+00 0.00000000E+00-1.45103961E-04 0.00000000E+00 9.73386960E-05
 2  7 0.00000000E+00 9.73386960E-05 0.00000000E+00 0.00000000E+00 0.00000000E+00
 2  8-6.90064650E-01 4.06242918E-04-3.06683488E-02-2.30203166E-03 0.00000000E+00
 2  9 0.00000000E+00 8.96400537E-04 0.00000000E+00 0.00000000E+00-7.92083778E-04
 2 10 0.00000000E+00 0.00000000E+00 5.58949950E-04-4.58097823E-05-4.58097823E-05
 2 11 9.16195647E-05 0.00000000E+00 0.00000000E+00 0.00000000E+00-2.17125731E-04
 2 12-2.17125731E-04 4.34251463E-04 0.00000000E+00 0.00000000E+00 0.00000000E+00
 2 13 0.00000000E+00 0.00000000E+00-1.45103961E-04 0.00000000E+00 9.73386960E-05
 2 14 0.00000000E+00 9.73386960E-05 0.00000000E+00 0.00000000E+00 0.00000000E+00
 3  1-2.36909446E-03 3.98314527E-01 1.16773986E-01 2.39172371E-01 0.00000000E+00
 3  2 0.00000000E+00-7.02410373E-03 0.00000000E+00 0.00000000E+00-1.71248312E-05
 3  3 0.00000000E+00 0.00000000E+00-1.94688235E-02-9.12746161E-04-9.12746161E-04
 3  4 1.82549232E-03 0.00000000E+00 0.00000000E+00 0.00000000E+00-3.95580406E-03
 3  5-3.95580406E-03 7.91160812E-03 0.00000000E+00 0.00000000E+00 0.00000000E+00
 3  6 0.00000000E+00 0.00000000E+00 2.02718513E-03 0.00000000E+00-1.35987712E-03
 3  7 0.00000000E+00-1.35987712E-03 0.00000000E+00 0.00000000E+00 0.00000000E+00
 3  8-2.36909446E-03 3.98314527E-01 1.16773986E-01 2.39172371E-01 0.00000000E+00
 3  9 0.00000000E+00 7.02410373E-03 0.00000000E+00 0.00000000E+00 1.71248312E-05
 3 10 0.00000000E+00 0.00000000E+00 1.94688235E-02-9.12746161E-04-9.12746161E-04
 3 11 1.82549232E-03 0.00000000E+00 0.00000000E+00 0.00000000E+00-3.95580406E-03
 3 12-3.95580406E-03 7.91160812E-03 0.00000000E+00 0.00000000E+00 0.00000000E+00
 3 13 0.00000000E+00 0.00000000E+00-2.02718513E-03 0.00000000E+00 1.35987712E-03
 3 14 0.00000000E+00 1.35987712E-03 0.00000000E+00 0.00000000E+00 0.00000000E+00
 4  1 7.35804706E-04-4.25009959E-01-1.29163882E-01-2.89533981E-01 0.00000000E+00
 4  2 0.00000000E+00 3.35736263E-02 0.00000000E+00 0.00000000E+00 3.68194124E-02
 4  3 0.00000000E+00 0.00000000E+00 1.29474864E-02-8.07433031E-04-8.07433031E-04
 4  4 1.61486606E-03 0.00000000E+00 0.00000000E+00 0.00000000E+00-2.10274244E-03
 4  5-2.10274244E-03 4.20548489E-03 0.00000000E+00 0.00000000E+00 0.00000000E+00
 4  6 0.00000000E+00 0.00000000E+00 1.08513216E-03 0.00000000E+00-7.27928786E-04
 4  7 0.00000000E+00-7.27928786E-04 0.00000000E+00 0.00000000E+00 0.00000000E+00
 4  8-7.35804706E-04 4.25009959E-01 1.29163882E-01 2.89533981E-01 0.00000000E+00
 4  9 0.00000000E+00 3.35736263E-02 0.00000000E+00 0.00000000E+00 3.68194124E-02
 4 10 0.00000000E+00 0.00000000E+00 1.29474864E-02 8.07433031E-04 8.07433031E-04
 4 11-1.61486606E-03 0.00000000E+00 0.00000000E+00 0.00000000E+00 2.10274244E-03
 4 12 2.10274244E-03-4.20548489E-03 0.00000000E+00 0.00000000E+00 0.00000000E+00
 4 13 0.00000000E+00 0.00000000E+00 1.08513216E-03 0.00000000E+00-7.27928786E-04
 4 14 0.00000000E+00-7.27928786E-04 0.00000000E+00 0.00000000E+00 0.00000000E+00
 5  1 0.00000000E+00 0.00000000E+00 0.00000000E+00 0.00000000E+00-3.65956618E-03
 5  2 2.70883007E-01 0.00000000E+00-4.41816165E-03 3.27034641E-01 0.00000000E+00
 5  3-2.94982432E-03 2.18347542E-01 0.00000000E+00 0.00000000E+00 0.00000000E+00
 5  4 0.00000000E+00 0.00000000E+00-3.68435872E-05 2.72718163E-03 0.00000000E+00
 5  5 0.00000000E+00 0.00000000E+00 0.00000000E+00-2.11566421E-04 1.56602574E-02
 5  6 4.14855086E-05-3.07077909E-03 0.00000000E+00-1.37329284E-03 0.00000000E+00
 5  7 1.85528657E-05 0.00000000E+00-7.42115161E-05 5.49317532E-03 0.00000000E+00
 5  8 0.00000000E+00 0.00000000E+00 0.00000000E+00 0.00000000E+00-3.65956618E-03
 5  9 2.70883007E-01 0.00000000E+00-4.41816165E-03 3.27034641E-01 0.00000000E+00
 5 10-2.94982432E-03 2.18347542E-01 0.00000000E+00 0.00000000E+00 0.00000000E+00
 5 11 0.00000000E+00 0.00000000E+00 3.68435872E-05-2.72718163E-03 0.00000000E+00
 5 12 0.00000000E+00 0.00000000E+00 0.00000000E+00 2.11566421E-04-1.56602574E-02
 5 13 4.14855086E-05-3.07077909E-03 0.00000000E+00-1.37329284E-03 0.00000000E+00
 5 14 1.85528657E-05 0.00000000E+00-7.42115161E-05 5.49317532E-03 0.00000000E+00
 6  1 0.00000000E+00 0.00000000E+00 0.00000000E+00 0.00000000E+00 2.70883007E-01
 6  2 3.65956618E-03 0.00000000E+00 3.27034641E-01 4.41816165E-03 0.00000000E+00
 6  3 2.18347542E-01 2.94982432E-03 0.00000000E+00 0.00000000E+00 0.00000000E+00
 6  4 0.00000000E+00 0.00000000E+00 2.72718163E-03 3.68435872E-05 0.00000000E+00
 6  5 0.00000000E+00 0.00000000E+00 0.00000000E+00 1.56602574E-02 2.11566421E-04
 6  6-3.07077909E-03-4.14855086E-05 0.00000000E+00-1.85528657E-05 0.00000000E+00
 6  7-1.37329284E-03 0.00000000E+00 5.49317532E-03 7.42115161E-05 0.00000000E+00
 6  8 0.00000000E+00 0.00000000E+00 0.00000000E+00 0.00000000E+00 2.70883007E-01
 6  9 3.65956618E-03 0.00000000E+00 3.27034641E-01 4.41816165E-03 0.00000000E+00
 6 10 2.18347542E-01 2.94982432E-03 0.00000000E+00 0.00000000E+00 0.00000000E+00
 6 11 0.00000000E+00 0.00000000E+00-2.72718163E-03-3.68435872E-05 0.00000000E+00
 6 12 0.00000000E+00 0.00000000E+00 0.00000000E+00-1.56602574E-02-2.11566421E-04
 6 13-3.07077909E-03-4.14855086E-05 0.00000000E+00-1.85528657E-05 0.00000000E+00
 6 14-1.37329284E-03 0.00000000E+00 5.49317532E-03 7.42115161E-05 0.00000000E+00
 7  1 0.00000000E+00 0.00000000E+00 0.00000000E+00 0.00000000E+00 2.98086621E-01
 7  2 1.15049524E-02 0.00000000E+00 3.56613773E-01 1.37638666E-02 0.00000000E+00
 7  3 2.64822945E-01 1.02211075E-02 0.00000000E+00 0.00000000E+00 0.00000000E+00
 7  4 0.00000000E+00 0.00000000E+00 9.45690874E-05 3.64998888E-06 0.00000000E+00
 7  5 0.00000000E+00 0.00000000E+00 0.00000000E+00-2.04291486E-03-7.88483504E-05
 7  6-8.45252462E-04-3.26233674E-05 0.00000000E+00-1.45896042E-05 0.00000000E+00
 7  7-3.78008152E-04 0.00000000E+00 1.51203333E-03 5.83584445E-05 0.00000000E+00
 7  8 0.00000000E+00 0.00000000E+00 0.00000000E+00 0.00000000E+00-2.98086621E-01
 7  9-1.15049524E-02 0.00000000E+00-3.56613773E-01-1.37638666E-02 0.00000000E+00
 7 10-2.64822945E-01-1.02211075E-02 0.00000000E+00 0.00000000E+00 0.00000000E+00
 7 11 0.00000000E+00 0.00000000E+00 9.45690874E-05 3.64998888E-06 0.00000000E+00
 7 12 0.00000000E+00 0.00000000E+00 0.00000000E+00-2.04291486E-03-7.88483504E-05
 7 13 8.45252462E-04 3.26233674E-05 0.00000000E+00 1.45896042E-05 0.00000000E+00
 7 14 3.78008152E-04 0.00000000E+00-1.51203333E-03-5.83584445E-05 0.00000000E+00
 8  1 0.00000000E+00 0.00000000E+00 0.00000000E+00 0.00000000E+00-1.15049524E-02
 8  2 2.98086621E-01 0.00000000E+00-1.37638666E-02 3.56613773E-01 0.00000000E+00
 8  3-1.02211075E-02 2.64822945E-01 0.00000000E+00 0.00000000E+00 0.00000000E+00
 8  4 0.00000000E+00 0.00000000E+00-3.64998888E-06 9.45690874E-05 0.00000000E+00
 8  5 0.00000000E+00 0.00000000E+00 0.00000000E+00 7.88483504E-05-2.04291486E-03
 8  6 3.26233674E-05-8.45252462E-04 0.00000000E+00-3.78008152E-04 0.00000000E+00
 8  7 1.45896042E-05 0.00000000E+00-5.83584445E-05 1.51203333E-03 0.00000000E+00
 8  8 0.00000000E+00 0.00000000E+00 0.00000000E+00 0.00000000E+00 1.15049524E-02
 8  9-2.98086621E-01 0.00000000E+00 1.37638666E-02-3.56613773E-01 0.00000000E+00
 8 10 1.02211075E-02-2.64822945E-01 0.00000000E+00 0.00000000E+00 0.00000000E+00
 8 11 0.00000000E+00 0.00000000E+00-3.64998888E-06 9.45690874E-05 0.00000000E+00
 8 12 0.00000000E+00 0.00000000E+00 0.00000000E+00 7.88483504E-05-2.04291486E-03
 8 13-3.26233674E-05 8.45252462E-04 0.00000000E+00 3.78008152E-04 0.00000000E+00
 8 14-1.45896042E-05 0.00000000E+00 5.83584445E-05-1.51203333E-03 0.00000000E+00
 9  1-4.05708672E-03 1.77207886E-02 1.43074602E-02 8.26498338E-02 0.00000000E+00
 9  2 0.00000000E+00-2.62364259E-01 0.00000000E+00 0.00000000E+00-3.35960923E-01
 9  3 0.00000000E+00 0.00000000E+00-1.91134911E-01 2.90202166E-03 2.90202166E-03
 9  4-5.80404332E-03 0.00000000E+00 0.00000000E+00 0.00000000E+00 1.30552325E-02
 9  5 1.30552325E-02-2.61104650E-02 0.00000000E+00 0.00000000E+00 0.00000000E+00
 9  6 0.00000000E+00 0.00000000E+00-6.14795719E-03 0.00000000E+00 4.12417506E-03
 9  7 0.00000000E+00 4.12417506E-03 0.00000000E+00 0.00000000E+00 0.00000000E+00
 9  8-4.05708672E-03 1.77207886E-02 1.43074602E-02 8.26498338E-02 0.00000000E+00
 9  9 0.00000000E+00 2.62364259E-01 0.00000000E+00 0.00000000E+00 3.35960923E-01
 9 10 0.00000000E+00 0.00000000E+00 1.91134911E-01 2.90202166E-03 2.90202166E-03
 9 11-5.80404332E-03 0.00000000E+00 0.00000000E+00 0.00000000E+00 1.30552325E-02
 9 12 1.30552325E-02-2.61104650E-02 0.00000000E+00 0.00000000E+00 0.00000000E+00
 9 13 0.00000000E+00 0.00000000E+00 6.14795719E-03 0.00000000E+00-4.12417506E-03
 9 14 0.00000000E+00-4.12417506E-03 0.00000000E+00 0.00000000E+00 0.00000000E+00
10  1 1.08989413E-03 9.84480724E-02 3.37950808E-02 1.02952923E-01 0.00000000E+00
10  2 0.00000000E+00 3.69191741E-01 0.00000000E+00 0.00000000E+00 4.32383485E-01
10  3 0.00000000E+00 0.00000000E+00 1.09346361E-01 5.05846743E-03 5.05846743E-03
10  4-1.01169349E-02 0.00000000E+00 0.00000000E+00 0.00000000E+00 6.29372947E-03
10  5 6.29372947E-03-1.25874589E-02 0.00000000E+00 0.00000000E+00 0.00000000E+00
10  6 0.00000000E+00 0.00000000E+00 8.00947682E-03 0.00000000E+00-5.37292039E-03
10  7 0.00000000E+00-5.37292039E-03 0.00000000E+00 0.00000000E+00 0.00000000E+00
10  8-1.08989413E-03-9.84480724E-02-3.37950808E-02-1.02952923E-01 0.00000000E+00
10  9 0.00000000E+00 3.69191741E-01 0.00000000E+00 0.00000000E+00 4.32383485E-01
10 10 0.00000000E+00 0.00000000E+00 1.09346361E-01-5.05846743E-03-5.05846743E-03
10 11 1.01169349E-02 0.00000000E+00 0.00000000E+00 0.00000000E+00-6.29372947E-03
10 12-6.29372947E-03 1.25874589E-02 0.00000000E+00 0.00000000E+00 0.00000000E+00
10 13 0.00000000E+00 0.00000000E+00 8.00947682E-03 0.00000000E+00-5.37292039E-03
10 14 0.00000000E+00-5.37292039E-03 0.00000000E+00 0.00000000E+00 0.00000000E+00
11  1 0.00000000E+00 0.00000000E+00 0.00000000E+00 0.00000000E+00-4.56830486E-01
11  2-1.75660197E-01 0.00000000E+00-1.02145032E-01-3.92767495E-02 0.00000000E+00
11  3 4.71295631E-01 1.81222326E-01 0.00000000E+00 0.00000000E+00 0.00000000E+00
11  4 0.00000000E+00 0.00000000E+00 2.05643306E-02 7.90738465E-03 0.00000000E+00
11  5 0.00000000E+00 0.00000000E+00 0.00000000E+00 9.61387334E-02 3.69672108E-02
11  6-3.64201322E-03-1.40042484E-03 0.00000000E+00-6.26289974E-04 0.00000000E+00
11  7-1.62876029E-03 0.00000000E+00 6.51503376E-03 2.50515706E-03 0.00000000E+00
11  8 0.00000000E+00 0.00000000E+00 0.00000000E+00 0.00000000E+00-4.56830486E-01
11  9-1.75660197E-01 0.00000000E+00-1.02145032E-01-3.92767495E-02 0.00000000E+00
11 10 4.71295631E-01 1.81222326E-01 0.00000000E+00 0.00000000E+00 0.00000000E+00
11 11 0.00000000E+00 0.00000000E+00-2.05643306E-02-7.90738465E-03 0.00000000E+00
11 12 0.00000000E+00 0.00000000E+00 0.00000000E+00-9.61387334E-02-3.69672108E-02
11 13-3.64201322E-03-1.40042484E-03 0.00000000E+00-6.26289974E-04 0.00000000E+00
11 14-1.62876029E-03 0.00000000E+00 6.51503376E-03 2.50515706E-03 0.00000000E+00
12  1 0.00000000E+00 0.00000000E+00 0.00000000E+00 0.00000000E+00 1.75660197E-01
12  2-4.56830486E-01 0.00000000E+00 3.92767495E-02-1.02145032E-01 0.00000000E+00
12  3-1.81222326E-01 4.71295631E-01 0.00000000E+00 0.00000000E+00 0.00000000E+00
12  4 0.00000000E+00 0.00000000E+00-7.90738465E-03 2.05643306E-02 0.00000000E+00
12  5 0.00000000E+00 0.00000000E+00 0.00000000E+00-3.69672108E-02 9.61387334E-02
12  6 1.40042484E-03-3.64201322E-03 0.00000000E+00-1.62876029E-03 0.00000000E+00
12  7 6.26289974E-04 0.00000000E+00-2.50515706E-03 6.51503376E-03 0.00000000E+00
12  8 0.00000000E+00 0.00000000E+00 0.00000000E+00 0.00000000E+00 1.75660197E-01
12  9-4.56830486E-01 0.00000000E+00 3.92767495E-02-1.02145032E-01 0.00000000E+00
12 10-1.81222326E-01 4.71295631E-01 0.00000000E+00 0.00000000E+00 0.00000000E+00
12 11 0.00000000E+00 0.00000000E+00 7.90738465E-03-2.05643306E-02 0.00000000E+00
12 12 0.00000000E+00 0.00000000E+00 0.00000000E+00 3.69672108E-02-9.61387334E-02
12 13 1.40042484E-03-3.64201322E-03 0.00000000E+00-1.62876029E-03 0.00000000E+00
12 14 6.26289974E-04 0.00000000E+00-2.50515706E-03 6.51503376E-03 0.00000000E+00
13  1 0.00000000E+00 0.00000000E+00 0.00000000E+00 0.00000000E+00 7.07776559E-03
13  2-5.22315280E-01 0.00000000E+00 2.56437026E-05-1.89241895E-03 0.00000000E+00
13  3-9.89011185E-03 7.29856969E-01 0.00000000E+00 0.00000000E+00 0.00000000E+00
13  4 0.00000000E+00 0.00000000E+00 4.53253187E-04-3.34485598E-02 0.00000000E+00
13  5 0.00000000E+00 0.00000000E+00 0.00000000E+00 9.01388636E-04-6.65194477E-02
13  6-5.16975086E-05 3.81510214E-03 0.00000000E+00 1.70614846E-03 0.00000000E+00
13  7-2.31195972E-05 0.00000000E+00 9.24790833E-05-6.82464510E-03 0.00000000E+00
13  8 0.00000000E+00 0.00000000E+00 0.00000000E+00 0.00000000E+00-7.07776559E-03
13  9 5.22315280E-01 0.00000000E+00-2.56437026E-05 1.89241895E-03 0.00000000E+00
13 10 9.89011185E-03-7.29856969E-01 0.00000000E+00 0.00000000E+00 0.00000000E+00
13 11 0.00000000E+00 0.00000000E+00 4.53253187E-04-3.34485598E-02 0.00000000E+00
13 12 0.00000000E+00 0.00000000E+00 0.00000000E+00 9.01388636E-04-6.65194477E-02
13 13 5.16975086E-05-3.81510214E-03 0.00000000E+00-1.70614846E-03 0.00000000E+00
13 14 2.31195972E-05 0.00000000E+00-9.24790833E-05 6.82464510E-03 0.00000000E+00
14  1 0.00000000E+00 0.00000000E+00 0.00000000E+00 0.00000000E+00 5.22315280E-01
14  2 7.07776559E-03 0.00000000E+00 1.89241895E-03 2.56437026E-05 0.00000000E+00
14  3-7.29856969E-01-9.89011185E-03 0.00000000E+00 0.00000000E+00 0.00000000E+00
14  4 0.00000000E+00 0.00000000E+00 3.34485598E-02 4.53253187E-04 0.00000000E+00
14  5 0.00000000E+00 0.00000000E+00 0.00000000E+00 6.65194477E-02 9.01388636E-04
14  6-3.81510214E-03-5.16975086E-05 0.00000000E+00-2.31195972E-05 0.00000000E+00
14  7-1.70614846E-03 0.00000000E+00 6.82464510E-03 9.24790833E-05 0.00000000E+00
14  8 0.00000000E+00 0.00000000E+00 0.00000000E+00 0.00000000E+00-5.22315280E-01
14  9-7.07776559E-03 0.00000000E+00-1.89241895E-03-2.56437026E-05 0.00000000E+00
14 10 7.29856969E-01 9.89011185E-03 0.00000000E+00 0.00000000E+00 0.00000000E+00
14 11 0.00000000E+00 0.00000000E+00 3.34485598E-02 4.53253187E-04 0.00000000E+00
14 12 0.00000000E+00 0.00000000E+00 0.00000000E+00 6.65194477E-02 9.01388636E-04
14 13 3.81510214E-03 5.16975086E-05 0.00000000E+00 2.31195972E-05 0.00000000E+00
14 14 1.70614846E-03 0.00000000E+00-6.82464510E-03-9.24790833E-05 0.00000000E+00
15  1 7.80252549E-02-4.24552108E-01-5.94390559E-01 8.28988657E-01 0.00000000E+00
15  2 0.00000000E+00 9.06642602E-02 0.00000000E+00 0.00000000E+00-1.66467965E-03
15  3 0.00000000E+00 0.00000000E+00-1.71960383E-01-2.02965352E-02-2.02965352E-02
15  4 4.05930704E-02 0.00000000E+00 0.00000000E+00 0.00000000E+00-1.40960946E-02
15  5-1.40960946E-02 2.81921891E-02 0.00000000E+00 0.00000000E+00 0.00000000E+00
15  6 0.00000000E+00 0.00000000E+00 8.54723571E-03 0.00000000E+00-5.73366002E-03
15  7 0.00000000E+00-5.73366002E-03 0.00000000E+00 0.00000000E+00 0.00000000E+00
15  8 7.80252549E-02-4.24552108E-01-5.94390559E-01 8.28988657E-01 0.00000000E+00
15  9 0.00000000E+00-9.06642602E-02 0.00000000E+00 0.00000000E+00 1.66467965E-03
15 10 0.00000000E+00 0.00000000E+00 1.71960383E-01-2.02965352E-02-2.02965352E-02
15 11 4.05930704E-02 0.00000000E+00 0.00000000E+00 0.00000000E+00-1.40960946E-02
15 12-1.40960946E-02 2.81921891E-02 0.00000000E+00 0.00000000E+00 0.00000000E+00
15 13 0.00000000E+00 0.00000000E+00-8.54723571E-03 0.00000000E+00 5.73366002E-03
15 14 0.00000000E+00 5.73366002E-03 0.00000000E+00 0.00000000E+00 0.00000000E+00
16  1 8.92304290E-02-4.00858136E-01-6.41648195E-01 1.14328855E+00 0.00000000E+00
16  2 0.00000000E+00 1.54714037E-01 0.00000000E+00 0.00000000E+00 6.41161597E-03
16  3 0.00000000E+00 0.00000000E+00 3.47808967E-02-2.20913431E-03-2.20913431E-03
16  4 4.41826862E-03 0.00000000E+00 0.00000000E+00 0.00000000E+00 2.95618593E-02
16  5 2.95618593E-02-5.91237185E-02 0.00000000E+00 0.00000000E+00 0.00000000E+00
16  6 0.00000000E+00 0.00000000E+00-4.72659402E-03 0.00000000E+00 3.17069566E-03
16  7 0.00000000E+00 3.17069566E-03 0.00000000E+00 0.00000000E+00 0.00000000E+00
16  8-8.92304290E-02 4.00858136E-01 6.41648195E-01-1.14328855E+00 0.00000000E+00
16  9 0.00000000E+00 1.54714037E-01 0.00000000E+00 0.00000000E+00 6.41161597E-03
16 10 0.00000000E+00 0.00000000E+00 3.47808967E-02 2.20913431E-03 2.20913431E-03
16 11-4.41826862E-03 0.00000000E+00 0.00000000E+00 0.00000000E+00-2.95618593E-02
16 12-2.95618593E-02 5.91237185E-02 0.00000000E+00 0.00000000E+00 0.00000000E+00
16 13 0.00000000E+00 0.00000000E+00-4.72659402E-03 0.00000000E+00 3.17069566E-03
16 14 0.00000000E+00 3.17069566E-03 0.00000000E+00 0.00000000E+00 0.00000000E+00
17  1 0.00000000E+00 0.00000000E+00 0.00000000E+00 0.00000000E+00 4.30182124E-03
17  2 1.16871961E-01 0.00000000E+00-1.35423552E-03-3.67918965E-02 0.00000000E+00
17  3-5.38523692E-03-1.46306219E-01 0.00000000E+00 0.00000000E+00 0.00000000E+00
17  4 0.00000000E+00 0.00000000E+00 8.88476906E-03 2.41381575E-01 0.00000000E+00
17  5 0.00000000E+00 0.00000000E+00 0.00000000E+00 1.80929133E-02 4.91548612E-01
17  6-5.08324407E-04-1.38101671E-02 0.00000000E+00-6.17609096E-03 0.00000000E+00
17  7-2.27329455E-04 0.00000000E+00 9.09318212E-04 2.47043745E-02 0.00000000E+00
17  8 0.00000000E+00 0.00000000E+00 0.00000000E+00 0.00000000E+00 4.30182124E-03
17  9 1.16871961E-01 0.00000000E+00-1.35423552E-03-3.67918965E-02 0.00000000E+00
17 10-5.38523692E-03-1.46306219E-01 0.00000000E+00 0.00000000E+00 0.00000000E+00
17 11 0.00000000E+00 0.00000000E+00-8.88476906E-03-2.41381575E-01 0.00000000E+00
17 12 0.00000000E+00 0.00000000E+00 0.00000000E+00-1.80929133E-02-4.91548612E-01
17 13-5.08324407E-04-1.38101671E-02 0.00000000E+00-6.17609096E-03 0.00000000E+00
17 14-2.27329455E-04 0.00000000E+00 9.09318212E-04 2.47043745E-02 0.00000000E+00
18  1 0.00000000E+00 0.00000000E+00 0.00000000E+00 0.00000000E+00 1.16871961E-01
18  2-4.30182124E-03 0.00000000E+00-3.67918965E-02 1.35423552E-03 0.00000000E+00
18  3-1.46306219E-01 5.38523692E-03 0.00000000E+00 0.00000000E+00 0.00000000E+00
18  4 0.00000000E+00 0.00000000E+00 2.41381575E-01-8.88476906E-03 0.00000000E+00
18  5 0.00000000E+00 0.00000000E+00 0.00000000E+00 4.91548612E-01-1.80929133E-02
18  6-1.38101671E-02 5.08324407E-04 0.00000000E+00 2.27329455E-04 0.00000000E+00
18  7-6.17609096E-03 0.00000000E+00 2.47043745E-02-9.09318212E-04 0.00000000E+00
18  8 0.00000000E+00 0.00000000E+00 0.00000000E+00 0.00000000E+00 1.16871961E-01
18  9-4.30182124E-03 0.00000000E+00-3.67918965E-02 1.35423552E-03 0.00000000E+00
18 10-1.46306219E-01 5.38523692E-03 0.00000000E+00 0.00000000E+00 0.00000000E+00
18 11 0.00000000E+00 0.00000000E+00-2.41381575E-01 8.88476906E-03 0.00000000E+00
18 12 0.00000000E+00 0.00000000E+00 0.00000000E+00-4.91548612E-01 1.80929133E-02
18 13-1.38101671E-02 5.08324407E-04 0.00000000E+00 2.27329455E-04 0.00000000E+00
18 14-6.17609096E-03 0.00000000E+00 2.47043745E-02-9.09318212E-04 0.00000000E+00
19  1 1.71876640E-02 4.96691799E-02 2.88326702E-02-1.20885004E-01 0.00000000E+00
19  2 0.00000000E+00-5.09313200E-02 0.00000000E+00 0.00000000E+00-4.64096413E-03
19  3 0.00000000E+00 0.00000000E+00-7.86183977E-02-1.21225670E-01-1.21225670E-01
19  4 2.42451340E-01 0.00000000E+00 0.00000000E+00 0.00000000E+00-2.41511356E-01
19  5-2.41511356E-01 4.83022711E-01 0.00000000E+00 0.00000000E+00 0.00000000E+00
19  6 0.00000000E+00 0.00000000E+00 3.63629901E-02 0.00000000E+00-2.43930353E-02
19  7 0.00000000E+00-2.43930353E-02 0.00000000E+00 0.00000000E+00 0.00000000E+00
19  8 1.71876640E-02 4.96691799E-02 2.88326702E-02-1.20885004E-01 0.00000000E+00
19  9 0.00000000E+00 5.09313200E-02 0.00000000E+00 0.00000000E+00 4.64096413E-03
19 10 0.00000000E+00 0.00000000E+00 7.86183977E-02-1.21225670E-01-1.21225670E-01
19 11 2.42451340E-01 0.00000000E+00 0.00000000E+00 0.00000000E+00-2.41511356E-01
19 12-2.41511356E-01 4.83022711E-01 0.00000000E+00 0.00000000E+00 0.00000000E+00
19 13 0.00000000E+00 0.00000000E+00-3.63629901E-02 0.00000000E+00 2.43930353E-02
19 14 0.00000000E+00 2.43930353E-02 0.00000000E+00 0.00000000E+00 0.00000000E+00
20  1 0.00000000E+00 0.00000000E+00 0.00000000E+00 0.00000000E+00 0.00000000E+00
20  2 0.00000000E+00 0.00000000E+00 0.00000000E+00 0.00000000E+00 0.00000000E+00
20  3 0.00000000E+00 0.00000000E+00 0.00000000E+00-2.52113811E-09 2.52113821E-09
20  4 0.00000000E+00 2.92091122E-01 0.00000000E+00 0.00000000E+00-4.33644923E-09
20  5 4.33644833E-09 0.00000000E+00 5.02407741E-01 0.00000000E+00 0.00000000E+00
20  6 0.00000000E+00 0.00000000E+00 0.00000000E+00 0.00000000E+00-1.42992514E-10
20  7 0.00000000E+00 1.42990135E-10 0.00000000E+00 0.00000000E+00 1.65665376E-02
20  8 0.00000000E+00 0.00000000E+00 0.00000000E+00 0.00000000E+00 0.00000000E+00
20  9 0.00000000E+00 0.00000000E+00 0.00000000E+00 0.00000000E+00 0.00000000E+00
20 10 0.00000000E+00 0.00000000E+00 0.00000000E+00-2.52113375E-09 2.52113313E-09
20 11 0.00000000E+00 2.92091122E-01 0.00000000E+00 0.00000000E+00-4.33644284E-09
20 12 4.33644446E-09 0.00000000E+00 5.02407741E-01 0.00000000E+00 0.00000000E+00
20 13 0.00000000E+00 0.00000000E+00 0.00000000E+00 0.00000000E+00 1.42990036E-10
20 14 0.00000000E+00-1.42992501E-10 0.00000000E+00 0.00000000E+00-1.65665376E-02
21  1 0.00000000E+00 0.00000000E+00 0.00000000E+00 0.00000000E+00 0.00000000E+00
21  2 0.00000000E+00 0.00000000E+00 0.00000000E+00 0.00000000E+00 0.00000000E+00
21  3 0.00000000E+00 0.00000000E+00 0.00000000E+00-2.52958328E-01 2.52958328E-01
21  4 0.00000000E+00-2.91115533E-09 0.00000000E+00 0.00000000E+00-4.35097870E-01
21  5 4.35097870E-01 0.00000000E+00-5.00730016E-09 0.00000000E+00 0.00000000E+00
21  6 0.00000000E+00 0.00000000E+00 0.00000000E+00 0.00000000E+00-1.43470458E-02
21  7 0.00000000E+00 1.43470458E-02 0.00000000E+00 0.00000000E+00-1.65112693E-10
21  8 0.00000000E+00 0.00000000E+00 0.00000000E+00 0.00000000E+00 0.00000000E+00
21  9 0.00000000E+00 0.00000000E+00 0.00000000E+00 0.00000000E+00 0.00000000E+00
21 10 0.00000000E+00 0.00000000E+00 0.00000000E+00-2.52958328E-01 2.52958328E-01
21 11 0.00000000E+00-2.91115372E-09 0.00000000E+00 0.00000000E+00-4.35097870E-01
21 12 4.35097870E-01 0.00000000E+00-5.00729724E-09 0.00000000E+00 0.00000000E+00
21 13 0.00000000E+00 0.00000000E+00 0.00000000E+00 0.00000000E+00 1.43470458E-02
21 14 0.00000000E+00-1.43470458E-02 0.00000000E+00 0.00000000E+00 1.65112429E-10
22  1 0.00000000E+00 0.00000000E+00 0.00000000E+00 0.00000000E+00 0.00000000E+00
22  2 0.00000000E+00 0.00000000E+00 0.00000000E+00 0.00000000E+00 0.00000000E+00
22  3 0.00000000E+00 0.00000000E+00 0.00000000E+00 7.95297171E-10-7.95297809E-10
22  4 0.00000000E+00 3.09456770E-01 0.00000000E+00 0.00000000E+00 1.30782171E-09
22  5-1.30782252E-09 0.00000000E+00 5.08884321E-01 0.00000000E+00 0.00000000E+00
22  6 0.00000000E+00 0.00000000E+00 0.00000000E+00 0.00000000E+00 1.89209873E-11
22  7 0.00000000E+00-1.89212151E-11 0.00000000E+00 0.00000000E+00 7.36224916E-03
22  8 0.00000000E+00 0.00000000E+00 0.00000000E+00 0.00000000E+00 0.00000000E+00
22  9 0.00000000E+00 0.00000000E+00 0.00000000E+00 0.00000000E+00 0.00000000E+00
22 10 0.00000000E+00 0.00000000E+00 0.00000000E+00-7.95299570E-10 7.95299132E-10
22 11 0.00000000E+00-3.09456770E-01 0.00000000E+00 0.00000000E+00-1.30782478E-09
22 12 1.30782329E-09 0.00000000E+00-5.08884321E-01 0.00000000E+00 0.00000000E+00
22 13 0.00000000E+00 0.00000000E+00 0.00000000E+00 0.00000000E+00 1.89213885E-11
22 14 0.00000000E+00-1.89203150E-11 0.00000000E+00 0.00000000E+00 7.36224916E-03
23  1 0.00000000E+00 0.00000000E+00 0.00000000E+00 0.00000000E+00 0.00000000E+00
23  2 0.00000000E+00 0.00000000E+00 0.00000000E+00 0.00000000E+00 0.00000000E+00
23  3 0.00000000E+00 0.00000000E+00 0.00000000E+00-2.67997424E-01 2.67997424E-01
23  4 0.00000000E+00 9.18329780E-10 0.00000000E+00 0.00000000E+00-4.40706750E-01
23  5 4.40706750E-01 0.00000000E+00 1.51014035E-09 0.00000000E+00 0.00000000E+00
23  6 0.00000000E+00 0.00000000E+00 0.00000000E+00 0.00000000E+00-6.37589583E-03
23  7 0.00000000E+00 6.37589583E-03 0.00000000E+00 0.00000000E+00 2.18431505E-11
23  8 0.00000000E+00 0.00000000E+00 0.00000000E+00 0.00000000E+00 0.00000000E+00
23  9 0.00000000E+00 0.00000000E+00 0.00000000E+00 0.00000000E+00 0.00000000E+00
23 10 0.00000000E+00 0.00000000E+00 0.00000000E+00 2.67997424E-01-2.67997424E-01
23 11 0.00000000E+00-9.18332086E-10 0.00000000E+00 0.00000000E+00 4.40706750E-01
23 12-4.40706750E-01 0.00000000E+00-1.51014862E-09 0.00000000E+00 0.00000000E+00
23 13 0.00000000E+00 0.00000000E+00 0.00000000E+00 0.00000000E+00-6.37589583E-03
23 14 0.00000000E+00 6.37589583E-03 0.00000000E+00 0.00000000E+00 2.18433423E-11
24  1-5.00290961E-03-1.46939450E-01-1.30755508E-01 1.08576534E-02 0.00000000E+00
24  2 0.00000000E+00-5.11145997E-01 0.00000000E+00 0.00000000E+00-1.26367540E-01
24  3 0.00000000E+00 0.00000000E+00 5.94224221E-01-1.45761417E-02-1.45761417E-02
24  4 2.91522835E-02 0.00000000E+00 0.00000000E+00 0.00000000E+00-2.29294315E-02
24  5-2.29294315E-02 4.58588629E-02 0.00000000E+00 0.00000000E+00 0.00000000E+00
24  6 0.00000000E+00 0.00000000E+00 1.91720480E-02 0.00000000E+00-1.28610008E-02
24  7 0.00000000E+00-1.28610008E-02 0.00000000E+00 0.00000000E+00 0.00000000E+00
24  8-5.00290961E-03-1.46939450E-01-1.30755508E-01 1.08576534E-02 0.00000000E+00
24  9 0.00000000E+00 5.11145997E-01 0.00000000E+00 0.00000000E+00 1.26367540E-01
24 10 0.00000000E+00 0.00000000E+00-5.94224221E-01-1.45761417E-02-1.45761417E-02
24 11 2.91522835E-02 0.00000000E+00 0.00000000E+00 0.00000000E+00-2.29294315E-02
24 12-2.29294315E-02 4.58588629E-02 0.00000000E+00 0.00000000E+00 0.00000000E+00
24 13 0.00000000E+00 0.00000000E+00-1.91720480E-02 0.00000000E+00 1.28610008E-02
24 14 0.00000000E+00 1.28610008E-02 0.00000000E+00 0.00000000E+00 0.00000000E+00
25  1 0.00000000E+00 0.00000000E+00 0.00000000E+00 0.00000000E+00-2.89520317E-02
25  2-1.30585348E-01 0.00000000E+00 1.79869295E-02 8.11283117E-02 0.00000000E+00
25  3 4.18243884E-02 1.88644872E-01 0.00000000E+00 0.00000000E+00 0.00000000E+00
25  4 0.00000000E+00 0.00000000E+00 7.31553086E-02 3.29959967E-01 0.00000000E+00
25  5 0.00000000E+00 0.00000000E+00 0.00000000E+00 1.16913361E-01 5.27326443E-01
25  6 1.64762815E-03 7.43146795E-03 0.00000000E+00 3.32344662E-03 0.00000000E+00
25  7 7.36840183E-04 0.00000000E+00-2.94736531E-03-1.32938071E-02 0.00000000E+00
25  8 0.00000000E+00 0.00000000E+00 0.00000000E+00 0.00000000E+00 2.89520317E-02
25  9 1.30585348E-01 0.00000000E+00-1.79869295E-02-8.11283117E-02 0.00000000E+00
25 10-4.18243884E-02-1.88644872E-01 0.00000000E+00 0.00000000E+00 0.00000000E+00
25 11 0.00000000E+00 0.00000000E+00 7.31553086E-02 3.29959967E-01 0.00000000E+00
25 12 0.00000000E+00 0.00000000E+00 0.00000000E+00 1.16913361E-01 5.27326443E-01
25 13-1.64762815E-03-7.43146795E-03 0.00000000E+00-3.32344662E-03 0.00000000E+00