!-----------------------------------------------------------------------
! Created by FMOutil ... Sun Feb 11 15:15:39 2007
! Input File: 1crnhadd.pdb                                                
!-----------------------------------------------------------------------
 $contrl runtyp=energy nprint=-5 $end
 $system mwords=118 memddi=0 $end
 $gddi ngroup=8 $end
 $intgrl nintic=-98000000 $end
 $scf dirscf=.f. npunch=0 $end
 $fmoprp
   ngrfmo(1)=8,8,0,0,0,  0,0,0,0,0
   naodir=220
 $end
 $fmo
      nlayer=1
      nfrag=39
      icharg(1)= 1, 0, 0, 0, 0,   0, 0, 0, 0, 1,
                 0, 0, 0, 0, 0,   0, 1, 0, 0, 0,
                 0,-1, 0, 0, 0,   0, 0, 0, 0, 0,
                 0, 0, 0, 0, 0,  -1, 0, 0,-1
      frgnam(1)= thr001, thr002, cys003, cys004, pro005,
                 ser006, ile007, val008, ala009, arg010,
                 ser011, asn012, phe013, asn014, val015,
                 cys016, arg017, leu018, pro019, gly020,
                 pro022, glu023, ala024, ile025, ala027,
                 thr028, tyr029, thr030, ile033, ile034,
                 ile035, pro036, gly037, thr039, pro041,
                 gly042, tyr044, ala045, asn046
      indat(1)= 0
                1      2      5    -16      0
                3      4     17     18     21    -30      0
               19     20     31     32     35    -40
              542    543    554    555    558   -563      0
               33     34     41     42     45    -50
              437    438    442    443    446   -451      0
               43     44     51     52     55    -64      0
               53     54     65     66     69    -75      0
               67     68     76     77     80    -94      0
               78     79     95     96     99   -110      0
               97     98    111    112    115   -120      0
              113    114    121    122    125   -144      0
              123    124    145    146    149   -155      0
              147    148    156    157    160   -169      0
              158    159    170    171    174   -189      0
              172    173    190    191    194   -203      0
              192    193    204    205    208   -219      0
              206    207    220    221    224   -229
              349    350    366    367    370   -375      0
              222    223    230    231    234   -253      0
              232    233    254    255    258   -272      0
              256    257    273    274    277   -286      0
              275    276    287   -295    298   -307      0
              296    297    308    309    312   -321      0
              310    311    322    323    326   -336      0
              324    325    337    338    341   -346      0
              339    340    347    348    351   -365      0
              368    369    376    377    380   -385      0
              378    379    386    387    390   -399      0
              388    389    400    401    404   -420      0
              402    403    421   -436    439   -441      0
              444    445    452    453    456   -470      0
              454    455    471    472    475   -489      0
              473    474    490    491    494   -508      0
              492    493    509    510    513   -522      0
              511    512    523   -531    534   -539      0
              532    533    540    541    544   -553      0
              556    557    564    565    568   -577      0
              566    567    578   -586    589   -596      0
              587    588    597    598    601   -617      0
              599    600    618    619    622   -627      0
              620    621    628   -642      0
 $end
 $fmohyb
  STO-3G       5   5
    1 0  -0.117784   0.542250   0.000000   0.000000   0.850773
    0 1  -0.117787   0.542268   0.802106   0.000000  -0.283585
    0 1  -0.117787   0.542268  -0.401053  -0.694646  -0.283585
    0 1  -0.117787   0.542268  -0.401053   0.694646  -0.283585
    0 1   1.003620  -0.015003   0.000000   0.000000   0.000000
  MINI         5   5
    1 0  -0.104883   0.308874   0.000000   0.000000   0.521806
    0 1  -0.104883   0.308874   0.491961   0.000000  -0.173934
    0 1  -0.104883   0.308876  -0.245980  -0.426050  -0.173933
    0 1  -0.104883   0.308876  -0.245980   0.426050  -0.173933
    0 1   0.988209   0.063992   0.000000   0.000000   0.000000
 $end
 $fmobnd
      -2     3  STO-3G      MINI      
     -18    19  STO-3G      MINI      
    -541   542  STO-3G      MINI      
     -32    33  STO-3G      MINI      
    -436   437  STO-3G      MINI      
     -42    43  STO-3G      MINI      
     -52    53  STO-3G      MINI      
     -66    67  STO-3G      MINI      
     -77    78  STO-3G      MINI      
     -96    97  STO-3G      MINI      
    -112   113  STO-3G      MINI      
    -122   123  STO-3G      MINI      
    -146   147  STO-3G      MINI      
    -157   158  STO-3G      MINI      
    -171   172  STO-3G      MINI      
    -191   192  STO-3G      MINI      
    -205   206  STO-3G      MINI      
    -348   349  STO-3G      MINI      
    -221   222  STO-3G      MINI      
    -231   232  STO-3G      MINI      
    -255   256  STO-3G      MINI      
    -274   275  STO-3G      MINI      
    -295   296  STO-3G      MINI      
    -309   310  STO-3G      MINI      
    -323   324  STO-3G      MINI      
    -338   339  STO-3G      MINI      
    -367   368  STO-3G      MINI      
    -377   378  STO-3G      MINI      
    -387   388  STO-3G      MINI      
    -401   402  STO-3G      MINI      
    -443   444  STO-3G      MINI      
    -453   454  STO-3G      MINI      
    -472   473  STO-3G      MINI      
    -491   492  STO-3G      MINI      
    -510   511  STO-3G      MINI      
    -531   532  STO-3G      MINI      
    -555   556  STO-3G      MINI      
    -565   566  STO-3G      MINI      
    -586   587  STO-3G      MINI      
    -598   599  STO-3G      MINI      
    -619   620  STO-3G      MINI      
 $end
 $data
 plant seed protein                      30-apr-81   1crn      1crnd  1
 C1
 h.1-1    1
       sto 3
  
 c.1-1    6
       sto 3
  
 n.1-1    7
       sto 3
  
 o.1-1    8
       sto 3
  
 s.1-1   16
        s 3
        1  .5331257359E+03   .1543289673E+00
        2  .9710951830E+02   .5353281423E+00
        3  .2628162542E+02   .4446345422E+00
        l 3
        1  .3332975173E+02  -.9996722919E-01  .1559162750E+00
        2  .7745117521E+01   .3995128261E+00  .6076837186E+00
        3  .2518952599E+01   .7001154689E+00  .3919573931E+00
        l 3
        1  .2029194274E+01  -.2196203690E+00  .1058760429E-01
        2  .5661400518E+00   .2255954336E+00  .5951670053E+00
        3  .2215833792E+00   .9003984260E+00  .4620010120E+00
  
 $end
 $fmoxyz
      1      N           17.04700089       14.09899998        3.62500000
      2      C           16.96699905       12.78400040        4.33799982
      3      C           15.68500042       12.75500011        5.13299990
      4      O           15.26799965       13.82499981        5.59399986
      5      C           18.17000008       12.70300007        5.33699989
      6      O           19.33399963       12.82900047        4.46299982
      7      C           18.14999962       11.54599953        6.30399990
      8      H           16.99600029       11.95499992        3.63000011
      9      H           18.15099907       13.49499989        6.08599997
     10      H           20.13599968       12.78999996        4.98999977
     11      H           19.03000069       11.59300041        6.94500017
     12      H           17.25099945       11.60099983        6.91699982
     13      H           18.15399933       10.60799980        5.74900007
     14      H           17.89999962       14.13799953        3.08599997
     15      H           16.25399971       14.19600010        3.00699997
     16      H           17.04100037       14.84899998        4.30100012
     17      N           15.11499977       11.55500031        5.26499987
     18      C           13.85599995       11.46899986        6.06599998
     19      C           14.16399956       10.78499985        7.37900019
     20      O           14.99300003        9.86200047        7.44299984
     21      C           12.73200035       10.71100044        5.26100016
     22      O           13.30799961        9.43900013        4.92600012
     23      C           12.48400021       11.44200039        3.89499998
     24      H           15.55700016       10.75300026        4.83799982
     25      H           13.47500038       12.47000027        6.26999998
     26      H           11.80700016       10.65200043        5.83500004
     27      H           12.67099953        8.92000008        4.42999983
     28      H           11.70699978       10.91800022        3.33800006
     29      H           12.16699982       12.46800041        4.08400011
     30      H           13.40600014       11.44799995        3.31399989
     31      N           13.48799992       11.24100018        8.41699982
     32      C           13.65999985       10.70699978        9.78699970
     33      C           12.26900005       10.43099976       10.32299995
     34      O           11.39299965       11.30799961       10.18500042
     35      C           14.36800003       11.74800014       10.69099998
     36      S           15.88500023       12.42599964       10.01599979
     37      H           12.83100033       11.99600029        8.27999973
     38      H           14.27200031        9.80500031        9.77499962
     39      H           13.67599964       12.57199955       10.86400032
     40      H           14.60499954       11.26700020       11.64000034
     41      N           12.01900005        9.27200031       10.92800045
     42      C           10.64599991        8.99100018       11.40799999
     43      C           10.65400028        8.79300022       12.91899967
     44      O           11.65900040        8.29599953       13.49100018
     45      C           10.05700016        7.75199986       10.68200016
     46      S            9.83699989        8.01799965        8.90400028
     47      H           12.76299953        8.59399986       11.01500034
     48      H           10.00800037        9.84399986       11.17700005
     49      H           10.73299980        6.90999985       10.82699966
     50      H            9.08699989        7.51900005       11.12199974
     51      N            9.56099987        9.10799980       13.56299973
     52      C            9.44799995        9.03400040       15.01200008
     53      C            9.28800011        7.67000008       15.60599995
     54      O            9.48999977        7.51900005       16.81900024
     55      C            8.22999954        9.95699978       15.34500027
     56      C            7.33799982        9.78600025       14.11400032
     57      C            8.36600018        9.80399990       12.95800018
     58      H           10.39000034        9.34899998       15.46199989
     59      H            7.71999979        9.62500000       16.25000000
     60      H            8.54300022       10.99400043       15.46399975
     61      H            6.79699993        8.84000015       14.14700031
     62      H            6.62799978       10.60799980       14.02400017
     63      H            8.61200047       10.82499981       12.66699982
     64      H            7.99200010        9.25899982       12.09099960
     65      N            8.87500000        6.68599987       14.79599953
     66      C            8.67300034        5.31400013       15.27900028
     67      C            8.75300026        4.37599993       14.08300018
     68      O            8.72599983        4.85799980       12.92300034
     69      C            7.34000015        5.12099981       15.99600029
     70      O            6.27400017        5.21999979       15.03100014
     71      H            8.73200035        6.88600016       13.81599998
     72      H            9.44999981        5.09600019       16.01199913
     73      H            7.31699991        4.13899994       16.46800041
     74      H            7.21799994        5.89200020       16.75699997
     75      H            5.42999983        5.09999990       15.47299957
     76      N            8.88099957        3.07500005       14.35799980
     77      C            8.91199970        2.08299994       13.25800037
     78      C            7.58099985        2.08999991       12.50599957
     79      O            7.67000008        2.03099990       11.24499989
     80      C            9.20699978        0.67699999       13.92399979
     81      C           10.71399975        0.70200002       14.31200027
     82      C            8.81099987       -0.47700000       12.96899986
     83      C           11.18500042       -0.51599997       15.14200020
     84      H            8.89299965        2.77699995       15.32299995
     85      H            9.68299961        2.31699991       12.52400017
     86      H            8.60999966        0.49599999       14.81799984
     87      H           11.30099964        0.73600000       13.39400005
     88      H           10.89999962        1.60399997       14.89599991
     89      H            9.02200031       -1.43299997       13.44699955
     90      H            7.74700022       -0.41200000       12.74199963
     91      H            9.38500023       -0.39800000       12.04599953
     92      H           12.23700047       -0.41499999       15.36400032
     93      H           10.62500000       -0.56199998       16.06399918
     94      H           11.02200031       -1.42200005       14.57699966
     95      N            6.45800018        2.16199994       13.15900040
     96      C            5.14499998        2.20900011       12.45300007
     97      C            5.11499977        3.37899995       11.46100044
     98      O            4.66400003        3.26799989       10.34300041
     99      C            3.99499989        2.35400009       13.47799969
    100      C            2.71600008        2.89100003       12.86900043
    101      C            3.75799990        1.03199995       14.20800018
    102      H            6.48000002        2.20600009       14.16800022
    103      H            5.01200008        1.27800000       11.90100002
    104      H            4.31199980        3.10200000       14.20499992
    105      H            1.95000005        2.96799994       13.64099979
    106      H            2.90300012        3.87700009       12.44200039
    107      H            2.37500000        2.21499991       12.08500004
    108      H            2.94600010        1.15300000       14.92500019
    109      H            3.49300003        0.25999999       13.48499966
    110      H            4.66699982        0.74000001       14.73499966
    111      N            5.60599995        4.54600000       11.94099998
    112      C            5.59800005        5.76700020       11.08199978
    113      C            6.44099998        5.52699995        9.85000038
    114      O            6.05200005        5.93300009        8.74400043
    115      C            6.02199984        6.97700024       11.89099979
    116      H            5.96899986        4.57399988       12.88300037
    117      H            4.58900023        5.98099995       10.72999954
    118      H            6.01200008        7.86100006       11.25399971
    119      H            5.32999992        7.11999989       12.72099972
    120      H            7.02799988        6.82000017       12.27900028
    121      N            7.64699984        4.90899992       10.00500011
    122      C            8.49600029        4.60900021        8.83699989
    123      C            7.79799986        3.60899997        7.87599993
    124      O            7.87799978        3.77800012        6.65100002
    125      C            9.84700012        4.01999998        9.30500031
    126      C           10.75199986        3.60700011        8.14900017
    127      C           11.22599983        4.69899988        7.24399996
    128      N           12.14299965        5.57100010        8.03499985
    129      C           12.75800037        6.60900021        7.44299984
    130      N           12.53899956        6.93200016        6.15799999
    131      N           13.60099983        7.32200003        8.20199966
    132      H            7.92199993        4.59499979       10.92500019
    133      H            8.66800022        5.53999996        8.29800034
    134      H           10.36600018        4.77199984        9.89999962
    135      H            9.64799976        3.14299989        9.92099953
    136      H           11.63199997        3.12500000        8.57499981
    137      H           10.20300007        2.88800001        7.53999996
    138      H           11.75899982        4.27299976        6.39400005
    139      H           10.37600040        5.28000021        6.88600016
    140      H           12.30099964        5.38100004        9.01399994
    141      H           11.89900017        6.38100004        5.60400009
    142      H           13.01500034        7.72499990        5.75199986
    143      H           13.75100040        7.06099987        9.16600037
    144      H           14.08300018        8.11699963        7.80600023
    145      N            7.18599987        2.58200002        8.44499969
    146      C            6.50000000        1.58399999        7.56500006
    147      C            5.38199997        2.31299996        6.77299976
    148      O            5.21299982        2.01600003        5.55700016
    149      C            5.90799999        0.46200001        8.39999962
    150      O            6.98999977       -0.27200001        9.01200008
    151      H            7.16699982        2.51999998        9.45300007
    152      H            7.21899986        1.14499998        6.87300014
    153      H            5.26300001        0.88000000        9.17300034
    154      H            5.32600021       -0.20400000        7.76200008
    155      H            6.63199997       -0.98600000        9.54399967
    156      N            4.64799976        3.18199992        7.44600010
    157      C            3.54500008        3.93499994        6.75099993
    158      C            4.10699987        4.85099983        5.69099998
    159      O            3.53600001        5.00099993        4.61700010
    160      C            2.66300011        4.67700005        7.74800014
    161      C            1.80200005        3.73499990        8.60999966
    162      O            1.56700003        2.61299992        8.16499996
    163      N            1.39400005        4.25199986        9.76700020
    164      H            4.86100006        3.35299993        8.41800022
    165      H            2.90400004        3.21199989        6.24700022
    166      H            3.30299997        5.26300001        8.40799999
    167      H            2.00099993        5.34399986        7.19600010
    168      H            1.65900004        5.19399977       10.01700020
    169      H            0.82200003        3.70000005       10.39000034
    170      N            5.25899982        5.49800014        6.00500011
    171      C            5.92899990        6.35799980        5.05499983
    172      C            6.30399990        5.57800007        3.79900002
    173      O            6.13600016        6.07200003        2.65300012
    174      C            7.18300009        6.99399996        5.75400019
    175      C            7.88399982        8.00599957        4.88299990
    176      C            8.90600014        7.58599997        4.02699995
    177      C            7.53200006        9.37300014        4.98299980
    178      C            9.56000042        8.53899956        3.19400001
    179      C            8.17599964       10.28100014        4.14499998
    180      C            9.14099979        9.84500027        3.29200006
    181      H            5.68300009        5.33300018        6.90700006
    182      H            5.26399994        7.15999985        4.73600006
    183      H            6.85900021        7.48799992        6.67000008
    184      H            7.88600016        6.19799995        5.99900007
    185      H            9.19799995        6.54699993        3.99699998
    186      H            6.78499985        9.70300007        5.68900013
    187      H           10.34899998        8.24899960        2.51600003
    188      H            7.90999985       11.32699966        4.17299986
    189      H            9.60999966       10.57400036        2.64800000
    190      N            6.90000010        4.38999987        3.98900008
    191      C            7.33099985        3.60700011        2.79099989
    192      C            6.11600018        3.21000004        1.91499996
    193      O            6.23999977        3.14400005        0.68400002
    194      C            8.14500046        2.40400004        3.24000001
    195      C            9.55500031        2.85599995        3.73000002
    196      O           10.01299953        3.89499998        3.32299995
    197      N           10.11999989        1.95599997        4.53900003
    198      H            7.00799990        4.04199982        4.93100023
    199      H            7.96799994        4.22800016        2.16100001
    200      H            7.62500000        1.90199995        4.05600023
    201      H            8.25899982        1.71500003        2.40300012
    202      H            9.60999966        1.12300003        4.79699993
    203      H           11.05500031        2.11199999        4.88899994
    204      N            4.99300003        2.92700005        2.57100010
    205      C            3.78200006        2.59899998        1.74199998
    206      C            3.29600000        3.87100005        1.00399995
    207      O            2.94700003        3.81699991       -0.18900000
    208      C            2.69799995        1.95299995        2.60800004
    209      C            1.38399994        1.82599998        1.80599999
    210      C            3.17400002        0.53299999        3.00500011
    211      H            4.98000002        3.00799990        3.57800007
    212      H            4.03999996        1.86399996        0.97899997
    213      H            2.52200007        2.56699991        3.49099994
    214      H            0.62000000        1.36500001        2.43199992
    215      H            1.05100000        2.81599998        1.49500000
    216      H            1.55400002        1.20700002        0.92500001
    217      H            2.41400003        0.05500000        3.62299991
    218      H            3.33599997       -0.06100000        2.10500002
    219      H            4.10599995        0.60600001        3.56599998
    220      N            3.32100010        4.98699999        1.72000003
    221      C            2.89000010        6.28499985        1.12600005
    222      C            3.68700004        6.59700012       -0.11100000
    223      O            3.20000005        7.14699984       -1.10300004
    224      C            3.03900003        7.36899996        2.24000001
    225      S            2.55900002        9.01399994        1.64900005
    226      H            3.61800003        4.94299984        2.68400002
    227      H            1.85099995        6.25000000        0.79699999
    228      H            2.40300012        7.09800005        3.08299994
    229      H            4.07900000        7.40100002        2.56399989
    230      N            4.99700022        6.22700024       -0.10000000
    231      C            5.89499998        6.48899984       -1.21300006
    232      C            5.73799992        5.55999994       -2.40899992
    233      O            6.22800016        5.90100002       -3.50699997
    234      C            7.36999989        6.50699997       -0.73100001
    235      C            7.71700001        7.68699980        0.20600000
    236      C            7.94899988        8.94699955       -0.61500001
    237      N            9.21199989        8.85599995       -1.33700001
    238      C            9.53699970        9.53299999       -2.43099999
    239      N            8.65900040       10.35000038       -3.03200006
    240      N           10.79300022        9.49100018       -2.89899993
    241      H            5.37200022        5.77899981        0.72399998
    242      H            5.60500002        7.47300005       -1.58000004
    243      H            7.56599998        5.57700014       -0.19700000
    244      H            8.01500034        6.56599998       -1.60800004
    245      H            6.89200020        7.85300016        0.89899999
    246      H            8.62100029        7.44999981        0.76700002
    247      H            7.13399982        9.06599998       -1.32900000
    248      H            7.97700024        9.81000042        0.05100000
    249      H            9.90400028        8.21800041       -0.97000003
    250      H            7.70699978       10.39799976       -2.69700003
    251      H            8.95300007       10.91300011       -3.81699991
    252      H           11.47099972        8.88300037       -2.46199989
    253      H           11.05500031       10.06700039       -3.68600011
    254      N            5.05100012        4.41099977       -2.20400000
    255      C            4.93300009        3.43099999       -3.32599998
    256      C            4.39699984        4.01399994       -4.61999989
    257      O            4.98799992        3.75500011       -5.68699980
    258      C            4.19600010        2.18400002       -2.86299992
    259      C            4.96000004        1.17799997       -1.99100006
    260      C            3.90700006        0.09700000       -1.63399994
    261      C            6.12900019        0.60600001       -2.76799989
    262      H            4.68900013        4.21500015       -1.28199995
    263      H            5.94700003        3.13700008       -3.59599996
    264      H            3.32800007        2.51399994       -2.29299998
    265      H            3.86400008        1.65300000       -3.75500011
    266      H            5.38899994        1.62100005       -1.09200001
    267      H            4.36800003       -0.66700000       -1.00800002
    268      H            3.08100009        0.55900002       -1.09300005
    269      H            3.53200006       -0.36100000       -2.54900002
    270      H            6.66699982       -0.10700000       -2.14299989
    271      H            5.76000023        0.10100000       -3.66000009
    272      H            6.80100012        1.41299999       -3.05900002
    273      N            3.32900000        4.79500008       -4.54300022
    274      C            2.79200006        5.37599993       -5.79699993
    275      C            3.57299995        6.53999996       -6.32200003
    276      O            3.25999999        7.04500008       -7.42199993
    277      C            1.35800004        5.76599979       -5.47200012
    278      C            1.22300005        5.69399977       -3.99300003
    279      C            2.42100000        4.94099998       -3.40799999
    280      H            2.85899997        4.64499998       -6.60300016
    281      H            1.15600002        6.77899981       -5.81899977
    282      H            0.66299999        5.07399988       -5.94700003
    283      H            1.19200003        6.70300007       -3.58100009
    284      H            0.30300000        5.16800022       -3.73699999
    285      H            2.11800003        3.96600008       -3.02500010
    286      H            2.88800001        5.51599979       -2.60800004
    287      N            4.56500006        7.04699993       -5.55900002
    288      C            5.36600018        8.19099998       -6.01800013
    289      C            5.00699997        9.48099995       -5.28000021
    290      O            5.53499985       10.51000023       -5.73000002
    291      H            4.78000021        6.60300016       -4.67799997
    292      H            6.42000008        7.97200012       -5.84899998
    293      H            5.19199991        8.33600044       -7.08400011
    294      N            4.18100023        9.43799973       -4.26200008
    295      C            3.76699996       10.60900021       -3.51300001
    296      C            5.01700020       11.39700031       -3.04200006
    297      O            5.94700003       10.75699997       -2.52300000
    298      C            2.99200010       10.18799973       -2.22499990
    299      O            2.05100012        9.14400005       -2.62299991
    300      C            2.25999999       11.34899998       -1.55100000
    301      H            3.80500007        8.54599953       -3.97399998
    302      H            3.13499999       11.21300030       -4.16400003
    303      H            3.70300007        9.83100033       -1.48000002
    304      H            1.55100000        8.85499954       -1.85599995
    305      H            1.74300003       10.98600006       -0.66299999
    306      H            2.98000002       12.11499977       -1.26400006
    307      H            1.53499997       11.77400017       -2.24499989
    308      N            4.97100019       12.70300007       -3.17600012
    309      C            6.14300013       13.51299953       -2.69600010
    310      C            6.40000010       13.23299980       -1.22500002
    311      O            5.48500013       13.06099987       -0.38200000
    312      C            5.70300007       14.96899986       -2.92000008
    313      C            4.67600012       14.89299965       -3.99600005
    314      C            3.96399999       13.56700039       -3.81100011
    315      H            7.07200003       13.28100014       -3.21700001
    316      H            5.27400017       15.38500023       -2.00799990
    317      H            6.54699993       15.58100033       -3.23699999
    318      H            3.96900010       15.71700001       -3.90199995