! This file generates BDA energies (contribution arising due to dividing
! fragments along some covalent bonds
!
! Several similar contributions are computed, the last results are:
!
!    Electrostatic (PL state, incl. EPLs)  EES     -9291.381
!    Exchange (PL state)                   EEX      -159.910
!    Charge transfer (PL state)        E(CT+mix)     -48.320
!    Dispersion (PL state)                 EDI       -26.358
!        Total interaction (PL state)         Eint     -9525.969
!  
 $contrl units=bohr ispher=1 mplevl=2 nprint=-5 $end
 $gddi   ngroup=1 parout=.t. $end
 $scf    dirscf=.f. NPUNCH=0 diis=.f. soscf=.t. $end
 $fmo    nfrag=2 indat(1)=1,2,2,2,1,1,1,2 $end
 $fmoprp nprint=8 modorb=1 ipieda=1
 n0bda=   10 r0bda(1)=
 1.52459598 1.52790685 1.52697286 1.52845418 1.52936822 1.52886836 1.52705036
 1.52819428 1.53210550 1.53336566
 $end
 $basis gbasis=n31 ngauss=6 ndfunc=1 $end
 $fmoxyz
 C           6.0     0.0000000000        0.0000000000        1.4361917507
 C           6.0     0.0000000000        0.0000000000       -1.4361917507
 H           1.0     1.6818207406        0.9709996573       -2.1227921929
 H           1.0    -1.6818207406        0.9709996573       -2.1227921929
 H           1.0     0.0000000000        1.9419993146        2.1227921929
 H           1.0    -1.6818207406       -0.9709996573        2.1227921929
 H           1.0     1.6818207406       -0.9709996573        2.1227921929
 H           1.0     0.0000000000       -1.9419993146       -2.1227921929
 $end     
 $FMOLMO
  6-31G*      15   5
 1 0  -0.065034    0.288264    0.000000    0.000000    0.604412
       0.290129    0.000000    0.000000    0.319045   -0.017106
      -0.017106    0.057934    0.000000    0.000000    0.000000
 0 1  -0.065040    0.288293    0.569832    0.000000   -0.201456
       0.290147    0.300783    0.000000   -0.106342    0.049598
      -0.017106   -0.008771    0.000000   -0.027223    0.000000
 0 1  -0.065039    0.288293   -0.284916   -0.493490   -0.201455
       0.290145   -0.150392   -0.260486   -0.106340   -0.000427
       0.032923   -0.008771    0.033353    0.013612    0.023576
 0 1  -0.065039    0.288293   -0.284916    0.493490   -0.201455
       0.290145   -0.150392    0.260486   -0.106340   -0.000427
       0.032923   -0.008771   -0.033353    0.013612   -0.023576
 0 1   1.010938   -0.011975    0.000000    0.000000    0.000000
      -0.054085    0.000000    0.000000   -0.000000   -0.003174
      -0.003174   -0.003174    0.000000    0.000000    0.000000
mini   5   5
 1 0  -0.104883    0.308874    0.000000    0.000000    0.521806
 0 1  -0.104883    0.308874    0.491961    0.000000   -0.173934
 0 1  -0.104883    0.308876   -0.245980   -0.426050   -0.173933
 0 1  -0.104883    0.308876   -0.245980    0.426050   -0.173933
 0 1   0.988209    0.063992    0.000000    0.000000    0.000000
 $end
 $FMOBND
  -1  2 6-31G* mini
 $end
 $data
Basis set library
c1
h-1 1
c-1 6
 $end
