! Perform full PIEDA analysis (PL0 and PL states) 
! of alpha-(ALA)10.
! D. G. Fedorov, K. Kitaura, J. Comp. Chem. 28 (2007) 222-237.
!
!           Quantity                 Symbol     Published  Current GAMESS
!Polarisation (total, free state)    EPL0          -55.2      -55.221 
!Polarisation-polarisation (total)   EPL*PL          0.8        0.829
!Electrostatic (free state)          EES0           88.3       88.306
!Exchange (free state)               EEX0          250.6      250.593
!Free state CT without PL*PL         E(CT0+mix0)  -254.7     -254.676
!Pol.-induced dispersion(free state) EPL0DI                    -9.153
!Dispersion (free state)             EDI0                    -134.046
!                                    EPL0DI+EDI0  -143.2     -143.199
!Internal binding (free state)       EIB0         -113.4     -113.368
!Polarisation-exchange               EPL*EX         -3.5       -3.490 
!Polarisation-charge transfer        EPL*CTmix       2.9        2.862
!Polarisation-dispersion             EPL*DI         -0.3       -0.344
!  Internal binding                  EIB          -114.3     -114.340
!
 $contrl nprint=-5 ispher=1 $end
 $system memory=100000000 $end
 $gddi ngroup=1 parout=.t. $end
 $intgrl nintic=-90000000 $end
 $scf   dirscf=.f. NPUNCH=0 diis=.f. soscf=.t. $end
 $fmoprp naodir=200 nprint=9 modorb=1 ipieda=2
 r0bda(1)=
 1.52459598 1.52790685 1.52697286 1.52845418 1.52936822 1.52886836 1.52705036
 1.52819428 1.53210550 1.53336566
e0bda(1)=
  -14.8112517141   -0.2569708731   -0.0772764096   -0.0421357192
  -14.8095440485   -0.2561594557   -0.0771695893   -0.0420859331
  -14.8100250021   -0.2563878393   -0.0771992965   -0.0420999381
  -14.8092624844   -0.2560258073   -0.0771523363   -0.0420777398
  -14.8087927190   -0.2558029213   -0.0771237809   -0.0420640805
  -14.8090495371   -0.2559247617   -0.0771393589   -0.0420715461
  -14.8099850647   -0.2563688726   -0.0771968192   -0.0420987750
  -14.8093961580   -0.2560892535   -0.0771605144   -0.0420816295
  -14.8073893647   -0.2551377411   -0.0770401693   -0.0420233482
  -14.8067450368   -0.2548326656   -0.0770026311   -0.0420046844
 efmo0(1)=
    -271.4951996571    -231.3700764954    -231.3723529983    -231.3739007261
    -231.3697535281    -231.3669153169    -231.3728167996    -231.3707103204
    -231.3684827346    -231.3614607076    -207.6019119132    -270.7096036217
    -230.7191078716    -230.7208437159    -230.7222647563    -230.7180856890
    -230.7151847795    -230.7214081874    -230.7194457319    -230.7166502590
    -230.7090147255    -207.0233673826
 epl0ds(1)=
    0.0293400436    0.0649729091    0.0680402030    0.0618503411
    0.0635289494    0.0619223684    0.0595510297    0.0631473079
    0.0614874322    0.0584999835    0.0395500457   -0.0330798508
   -0.0735862542   -0.0774827601   -0.0706301797   -0.0718057521
   -0.0698290110   -0.0675144185   -0.0717620477   -0.0700240575
   -0.0670174915   -0.0471582974    0.0005394102   -0.0017741914
   -0.0015656790   -0.0008580070   -0.0016770182   -0.0019920715
   -0.0015252186   -0.0014268543   -0.0013756757   -0.0018137562
   -0.0011174777
 eint0(1)=     0.1407237517     0.3993444372    -0.4045297691    -0.2136151890
 $end
 $fmo
      mplevl=2
      respap=0 resppc=4 resdim=2.5 rcorsd=2 modesp=0
      nfrag=11
      icharg(1)= 0, 0, 0, 0, 0,
                 0, 0, 0, 0, 0,
                 0
      frgnam(1)= act001, ala002, ala003, ala004, ala005,
                 ala006, ala007, ala008, ala009, ala010,
                 nme011
      indat(1)= 0
                1    -14      0
               15    -24      0
               25    -34      0
               35    -44      0
               45    -54      0
               55    -64      0
               65    -74      0
               75    -84      0
               85    -94      0
               95   -104      0
              105   -112      0
 $end
 $FMOLMO
  6-31G*      15   5
    1 0  -0.065034   0.288264   0.000000   0.000000   0.604412
          0.290129   0.000000   0.000000   0.319045  -0.017106
         -0.017106   0.057934   0.000000   0.000000   0.000000
    0 1  -0.065040   0.288293   0.569832   0.000000  -0.201456
          0.290147   0.300783   0.000000  -0.106342   0.049598
         -0.017106  -0.008771   0.000000  -0.027223   0.000000
    0 1  -0.065039   0.288293  -0.284916  -0.493490  -0.201455
          0.290145  -0.150392  -0.260486  -0.106340  -0.000427
          0.032923  -0.008771   0.033353   0.013612   0.023576
    0 1  -0.065039   0.288293  -0.284916   0.493490  -0.201455
          0.290145  -0.150392   0.260486  -0.106340  -0.000427
          0.032923  -0.008771  -0.033353   0.013612  -0.023576
    0 1   1.010938  -0.011975   0.000000   0.000000   0.000000
         -0.054085   0.000000   0.000000  -0.000000  -0.003174
         -0.003174  -0.003174   0.000000   0.000000   0.000000
  MINI         5   5
    1 0  -0.104883   0.308874   0.000000   0.000000   0.521806
    0 1  -0.104883   0.308874   0.491961   0.000000  -0.173934
    0 1  -0.104883   0.308876  -0.245980  -0.426050  -0.173933
    0 1  -0.104883   0.308876  -0.245980   0.426050  -0.173933
    0 1   0.988209   0.063992   0.000000   0.000000   0.000000
 $end
 $FMOBND
      -9    15  6-31G*      MINI      
     -19    25  6-31G*      MINI      
     -29    35  6-31G*      MINI      
     -39    45  6-31G*      MINI      
     -49    55  6-31G*      MINI      
     -59    65  6-31G*      MINI      
     -69    75  6-31G*      MINI      
     -79    85  6-31G*      MINI      
     -89    95  6-31G*      MINI      
     -99   105  6-31G*      MINI      
 $end
! opt geom with abi-rhf/6-31G*
 $fmoxyz
     1        6  10.0656465464  -2.6127715311  -1.6101353756
     2        1   9.7104786081  -2.5838908266  -2.6299728814
     3        1  10.2701075704  -3.6468263370  -1.3504341704
     4        1  10.9877989133  -2.0499828847  -1.5259919348
     5        6   8.9853249922  -2.0889476348  -0.6961642353
     6        8   7.8149812092  -2.1681797503  -0.9677641988
     7        7   9.4023481865  -1.5128718505   0.4632371049
     8        1  10.3645242336  -1.6039232124   0.7039824830
     9        6   8.4686697151  -1.2864481993   1.5553802653
    10        1   7.9184672956  -2.1950101327   1.7628225936
    11        6   9.2275603742  -0.8534039255   2.8102247699
    12        1   8.5295959098  -0.6817543004   3.6187648379
    13        1   9.9200194101  -1.6294223286   3.1193392736
    14        1   9.7860621640   0.0605875165   2.6354216095
    15        6   7.3962690740  -0.2546258692   1.2241817458
    16        8   6.3375262297  -0.2894336709   1.8012468807
    17        7   7.6890186836   0.6857749500   0.3107262767
    18        1   8.5715240342   0.6521065305  -0.1450940833
    19        6   6.7398981107   1.7202530505  -0.0470484340
    20        1   6.4239463581   2.2361365414   0.8489359361
    21        6   7.3888355021   2.7184963728  -1.0049936014
    22        1   6.6790646734   3.4930730436  -1.2610129205
    23        1   8.2504544307   3.1828775311  -0.5379106181
    24        1   7.7094787471   2.2312137549  -1.9209200447
    25        6   5.4477410922   1.1825929874  -0.6600339523
    26        8   4.4585017455   1.8774046113  -0.6400764148
    27        7   5.4598411571  -0.0365758259  -1.2189925818
    28        1   6.2758582478  -0.6090131245  -1.1687134728
    29        6   4.2551024979  -0.5920761090  -1.8009584428
    30        1   3.8652813595   0.0996047930  -2.5344343576
    31        6   4.5595581151  -1.9305795801  -2.4739664171
    32        1   3.6554264912  -2.3286379510  -2.9152555254
    33        1   5.2968523606  -1.7950917208  -3.2566551862
    34        1   4.9484235585  -2.6492622600  -1.7614886872
    35        6   3.1215351478  -0.7676614915  -0.7930690813
    36        8   1.9774854791  -0.7968939318  -1.1913694822
    37        7   3.4333062903  -0.9063473447   0.5022112125
    38        1   4.3824104047  -0.8324037718   0.8018463162
    39        6   2.3954621022  -1.0773524785   1.4994945662
    40        1   1.7858426789  -1.9292173310   1.2345944017
    41        6   3.0209625293  -1.3068085616   2.8749499285
    42        1   2.2388700208  -1.4345667797   3.6122406967
    43        1   3.6337144304  -2.2010882242   2.8622215955
    44        1   3.6454222715  -0.4701011970   3.1669788891
    45        6   1.4205375110   0.0981781852   1.5613159811
    46        8   0.2794183226  -0.0947334659   1.9021022336
    47        7   1.8926164978   1.3247026484   1.2726024355
    48        1   2.8124619748   1.4314894511   0.9020254753
    49        6   1.0137099202   2.4767994946   1.3107115740
    50        1   0.4759562394   2.4718953560   2.2467896672
    51        6   1.8272104493   3.7650834873   1.1908337224
    52        1   1.1629205533   4.6200382832   1.2139607108
    53        1   2.5199088567   3.8449651767   2.0214983910
    54        1   2.3940811337   3.7887782029   0.2668136638
    55        6  -0.0736542785   2.4385281904   0.2359364505
    56        8  -1.1608346006   2.9030047537   0.4599043933
    57        7   0.2636797046   1.9207803007  -0.9648874005
    58        1   1.1234720533   1.4273723935  -1.0567312537
    59        6  -0.7214373153   1.7938099401  -2.0184850643
    60        1  -1.2804207946   2.7147064610  -2.0752725613
    61        6  -0.0342099999   1.5213357172  -3.3566651765
    62        1  -0.7761188770   1.4254220996  -4.1401631010
    63        1   0.6267297334   2.3440608462  -3.6060135619
    64        1   0.5491354836   0.6074139548  -3.3188540414
    65        6  -1.7671968594   0.7153401922  -1.7343575352
    66        8  -2.9095240511   0.8612135748  -2.0947696651
    67        7  -1.3496074718  -0.3947084996  -1.0989480635
    68        1  -0.3893683771  -0.4942428826  -0.8526933358
    69        6  -2.2589066202  -1.4891926117  -0.8330821874
    70        1  -2.7646309755  -1.7671294590  -1.7472506884
    71        6  -1.4899325479  -2.6902570509  -0.2837617421
    72        1  -2.1738045935  -3.5102098105  -0.1053350973
    73        1  -0.7404613213  -3.0123570641  -0.9987825650
    74        1  -0.9959654408  -2.4379162721   0.6482571952
    75        6  -3.3807724907  -1.1113342723   0.1315539399
    76        8  -4.4357414818  -1.6979204688   0.0843618992
    77        7  -3.1330817637  -0.1367281262   1.0200451526
    78        1  -2.2253686251   0.2720597729   1.0587143676
    79        6  -4.1195954826   0.2590296410   2.0022939776
    80        1  -4.4650035276  -0.6146901792   2.5380684191
    81        6  -3.5011263564   1.2524892772   2.9857465228
    82        1  -4.2427054240   1.5500165996   3.7157504960
    83        1  -2.6667113635   0.7907605450   3.5027474379
    84        1  -3.1383682482   2.1346846267   2.4697222543
    85        6  -5.3851999168   0.8570963809   1.3891550585
    86        8  -6.4075130843   0.8532125940   2.0349063976
    87        7  -5.3036260517   1.3851636300   0.1591729999
    88        1  -4.4470058604   1.3286797716  -0.3484631856
    89        6  -6.4577017360   1.9693727210  -0.4933902484
    90        1  -6.9526817953   2.6274711261   0.2068356291
    91        6  -6.0143049434   2.7703184829  -1.7170621957
    92        1  -6.8811731555   3.2050525985  -2.1957649322
    93        1  -5.3400280868   3.5653755564  -1.4180731643
    94        1  -5.4976248642   2.1382559651  -2.4311782125
    95        6  -7.5388363667   0.9627898629  -0.8999442254
    96        8  -8.6225795999   1.3797688809  -1.2196855890
    97        7  -7.2093933679  -0.3420461847  -0.8961287510
    98        1  -6.2872745737  -0.6154710884  -0.6315653341
    99        6  -8.1585265667  -1.3916264221  -1.1978737391
   100        1  -8.9847283308  -0.9320738506  -1.7207115778
   101        6  -7.5180422003  -2.4528672005  -2.0922285128
   102        1  -8.2274895069  -3.2425314511  -2.2950285200
   103        1  -7.2055025866  -2.0021154733  -3.0280112130
   104        1  -6.6446784556  -2.8850916094  -1.6139319435
   105        6  -8.7792706142  -2.0475619596   0.0413339253
   106        8  -9.5164066025  -2.9941873739  -0.0950958784
   107        7  -8.4864212387  -1.5223069472   1.2376019588
   108        1  -7.8861937305  -0.7321790776   1.3095570372
   109        6  -9.0705405322  -2.0546467995   2.4452074049
   110        1  -8.7034886784  -1.4768504780   3.2827479419
   111        1  -8.7973247431  -3.0938632806   2.5848560887
   112        1 -10.1519533107  -1.9921259299   2.4180101783
 $end
 $data
 6-31G* Basis set input using fake atomic coordinates
c1
h-1 1
 n31 6

c-1 6
 n31 6
   d  1
   1    0.8000000      1.000000000000

n-1 7
 n31 6
   d  1
   1    0.8000000      1.000000000000

o-1 8
 n31 6
   d  1
   1    0.8000000      1.000000000000

 $end
