! Total energy of the molecule: Euncorr(2)=     -860.559677006
! DFT exchange+correlation energy=      -94.213392615
! Total electron number          =      129.999673266
!
 $contrl nprint=-5 ispher=1 dfttyp=b3lyp $end
 $system mwords=100 memddi=0 $end
 $intgrl nintic=-90000000 $end
 $gddi   ngroup=1 $end
 $scf    dirscf=.f. NPUNCH=0 diis=.f. soscf=.t. $end
 $fmo
        nfrag=4 icharg(1)=0,0,0,0
        frgnam(1)=frag01,frag02,frag03,frag04
        indat(1)=1,1,1,1,1, 1,1,1,1,1,1,
                 2,2,2,2,2, 2,2,
                 3,3,3,3,3, 3,3,
                 4,4,4,4,4, 4,4,4
 $end
 $fmoprp nprint=9 naodir=220 $end
 $fmoxyz
H 1  0.00000        0.00000        0.00000
C 6  0.00000        1.09000        0.00000
H 1  1.02800        1.45300        0.00000
H 1 -0.51400        1.45300       -0.89000
C 6 -0.72100        1.60000        1.24900
O 8 -0.83900        2.80600        1.45300
N 7 -1.22700        0.72800        2.12500
H 1 -1.12400       -0.26100        1.94700
C 6 -1.91800        1.15900        3.32300
H 1 -2.81100        1.71900        3.04500
H 1 -2.20000        0.28100        3.90300
C 6 -1.01100        2.03900        4.17100
O 8 -1.42500        3.10100        4.63200
N 7  0.23000        1.59400        4.37700
H 1  0.50900        0.71300        3.97100
C 6  1.18900        2.33900        5.16800
H 1  0.82600        2.42800        6.19100
H 1  2.14100        1.80800        5.15900
C 6  1.39600        3.72800        4.58000
O 8  1.37900        4.72100        5.30400
N 7  1.59200        3.79600        3.26100
H 1  1.59400        2.94300        2.72100
C 6  1.80000        5.05900        2.58200
H 1  2.71300        5.52500        2.95400
H 1  1.89100        4.87300        1.51200
C 6  0.62100        5.99100        2.82100
O 8  0.80700        7.16100        3.14700
N 7 -0.59600        5.46800        2.65800
H 1 -0.68200        4.49800        2.38900
C 6 -1.79900        6.25200        2.85600
H 1 -1.52700        7.26900        3.14000
H 1 -2.37400        6.27500        1.93000
H 1 -2.40000        5.80200        3.64600
 $end     
 $FMOLMO
 csto-L1 5 5
 1 0  -0.117822 0.54233  0.0000   0.0000   0.85073
 0 1  -0.117822 0.54233  0.80205  0.0000  -0.28363
 0 1  -0.117822 0.54233 -0.40111 -0.69455 -0.28363
 0 1  -0.117822 0.54233 -0.40111  0.69455 -0.28363
 0 1   1.00363 -0.01505  0.0000   0.0000   0.0000 
 $end
 $FMOBND
  -9 12 csto-L1
 -16 19 csto-L1
 -23 26 csto-L1
 $end
 $data
Basis set input using fake atomic coordinates
c1
h 1
 sto 3

c 6
 sto 3

n 7
 sto 3

o 8
 sto 3

 $end
