!Neo-Hartee-Fock Heassian calculation on BrClCH3.
!Electronic basis set: 6-31G(d,p)
!Nuclear basis set: DZSPNB
!This calculation is to obtain a Hessian matrix for a subsequent
!sadpoint search. Note that for this purpose NUCOPT=.F.
!Results:
!
!FINAL RHF ENERGY IS    -3071.1236990129 AFTER  12 ITERATIONS
!                         1           2           3           4           5
!      FREQUENCY:       392.78 I     14.16       13.40        8.28        6.39  
!   REDUCED MASS:     12.09196    21.72839    25.16186    30.29455    24.69796
!
!                         6           7           8           9          10
!      FREQUENCY:         0.30      138.11      176.78      181.74      182.33  
!   REDUCED MASS:     21.39254     1.00035    36.31361     4.20108     4.20630
!
!                        11          12          13          14          15
!      FREQUENCY:       934.93      935.59     1111.41     1400.66     1403.61  
!   REDUCED MASS:      1.00275     1.00274     1.03328     1.08085     1.08514
!
!                        16          17          18
!      FREQUENCY:      2108.22     2241.38     2284.57  
!   REDUCED MASS:      1.00487     1.13219     1.11772
!
 $CONTRL SCFTYP=RHF RUNTYP=HESSIAN MAXIT=80 ICHARG=-1 $END
 $SYSTEM TIMLIM=20000 MEMORY=3000000   $END
 $SCF SOSCF=.F. DIIS=.T. ETHRSH=1.5 DIRSCF=.T.  $END
 $STATPT NSTEP=300 OPTTOL=1D-05 $END
 $NEO NEOSCF=RONHF BASNUC=DZSPNB NUNIQN=3 IUNIQN(1)=4,5,6
      NUMULT=4 NUCOPT=.F.  $END
 $BASIS  GBASIS=N31 NGAUSS=6 NPFUNC=1 NDFUNC=1  $END
 $GUESS  GUESS=HUCKEL NORB=84 $END
 $GESNMO GUESS=MOREAD NORB=24  $END
 $DATA
BRClCH3 NEO HESSIAN IN PREPARATION FOR A NEO SADPOINT SEARCH
 C1
 BR         35.0    .0000000000    .0000000000  -2.5065532130
 CL         17.0    .0000000000    .0000000000   2.4065532128
 C           6.0    .0000000000    .0000000000    .0000000001
 H           1.0   -.5350125436    .9266689025    .0061790791
 H           1.0   -.5350125435   -.9266689025    .0061790792
 H           1.0   1.0700251022    .0000000000    .0061788633
 $END
--- CLOSED SHELL ORBITALS --- GENERATED AT Mon Apr 30 02:43:43 2007
BRClCH3 NEO HESSIAN IN PREPARATION FOR A NEO SADPOINT SEARCH                    
E(RHF)=    -3071.1236988916, E(NUC)=  130.8492881498,   12 ITERS
 $VEC   
 1  1 9.95172090E-01-1.85255189E-02 0.00000000E+00 0.00000000E+00 1.81312794E-06
 1  2-1.82001108E-02 0.00000000E+00 0.00000000E+00-2.59390020E-06 2.62147276E-03
 1  3 0.00000000E+00 0.00000000E+00 8.60658117E-06-1.25152414E-04 0.00000000E+00
 1  4 0.00000000E+00-5.90573104E-06-9.54501333E-03-9.54501333E-03-9.54423738E-03
 1  5 0.00000000E+00 0.00000000E+00 0.00000000E+00-8.47806010E-04-8.47806010E-04
 1  6-8.49747765E-04 0.00000000E+00 0.00000000E+00 0.00000000E+00 8.96430559E-04
 1  7 8.96430560E-04 9.01664021E-04 0.00000000E+00 0.00000000E+00 0.00000000E+00
 1  8 5.68933881E-08 7.18882505E-07 0.00000000E+00-1.54212977E-11 5.62240741E-07
 1  9 1.28455580E-06 0.00000000E+00 0.00000000E+00-2.94886626E-06-9.50283253E-06
 1 10 0.00000000E+00 0.00000000E+00 7.72297413E-06 2.13646650E-06 2.13646657E-06
 1 11 1.48554037E-06 0.00000000E+00 0.00000000E+00 0.00000000E+00 2.92766562E-06
 1 12 8.51540126E-06 0.00000000E+00 1.32496504E-11-6.65311324E-06-6.06328058E-05
 1 13 0.00000000E+00 0.00000000E+00 1.45499760E-05 6.84042998E-06 6.84043230E-06
 1 14 5.86926013E-06-1.14043668E-11 0.00000000E+00 0.00000000E+00 2.43091362E-07
 1 15 2.51617660E-05 6.72567048E-07-1.16491765E-06-5.59025533E-06 2.43102606E-07
 1 16 2.51617602E-05 6.72571159E-07 1.16492882E-06-5.59025765E-06 2.43101287E-07
 1 17 2.51617674E-05-1.34513951E-06 0.00000000E+00-5.59025814E-06
 2  1-3.46561031E-07-9.20473770E-07 0.00000000E+00 0.00000000E+00-9.22501318E-07
 2  2-1.31518686E-05 0.00000000E+00 0.00000000E+00 3.33465575E-06-5.02322253E-05
 2  3 0.00000000E+00 0.00000000E+00-1.53206573E-05 4.95005462E-05 0.00000000E+00
 2  4 0.00000000E+00 3.16382001E-05-6.72435095E-06-6.72435101E-06-6.34749441E-06
 2  5 0.00000000E+00 0.00000000E+00 0.00000000E+00-1.25061700E-05-1.25061698E-05
 2  6-1.38098825E-05 0.00000000E+00 0.00000000E+00 0.00000000E+00-3.27579607E-05
 2  7-3.27579610E-05-2.97407357E-05 0.00000000E+00 0.00000000E+00 0.00000000E+00
 2  8 9.96118270E-01 1.46428973E-02 0.00000000E+00 0.00000000E+00-2.00865939E-05
 2  9-1.77143817E-02 0.00000000E+00 0.00000000E+00 3.24315461E-05 1.44102167E-03
 2 10 0.00000000E+00 0.00000000E+00-3.96248673E-05 6.26561464E-03 6.26561464E-03
 2 11 6.26458225E-03 0.00000000E+00 0.00000000E+00 0.00000000E+00-6.57272688E-06
 2 12-5.37949674E-05 0.00000000E+00 0.00000000E+00-4.14492022E-06 1.78052739E-04
 2 13-1.98781524E-11 0.00000000E+00 1.80820214E-05-8.16093739E-06-8.16093007E-06
 2 14 1.76922472E-05 0.00000000E+00 0.00000000E+00 0.00000000E+00 9.26978267E-07
 2 15-9.88022384E-05-3.54670187E-06 6.14307147E-06-2.06891368E-05 9.26982073E-07
 2 16-9.88022275E-05-3.54670181E-06-6.14306892E-06-2.06891358E-05 9.26994586E-07
 2 17-9.88022091E-05 7.09340039E-06 0.00000000E+00-2.06891318E-05
 3  1 3.13157215E-01 1.03469528E+00 1.94565834E-11 4.02294530E-11-1.74067225E-04
 3  2 9.65744278E-03 0.00000000E+00 0.00000000E+00-1.31033105E-05-1.15246824E-03
 3  3 0.00000000E+00 0.00000000E+00 1.20209979E-06 6.78993339E-05 0.00000000E+00
 3  4 0.00000000E+00-6.98271423E-06-4.46944707E-03-4.46944707E-03-4.48862605E-03
 3  5 0.00000000E+00 0.00000000E+00 0.00000000E+00 5.82397030E-04 5.82397030E-04
 3  6 5.89326794E-04 0.00000000E+00 0.00000000E+00 0.00000000E+00-4.04165380E-04
 3  7-4.04165380E-04-4.15553850E-04 0.00000000E+00 0.00000000E+00 0.00000000E+00
 3  8-3.30762884E-08-6.20343874E-07 0.00000000E+00 0.00000000E+00-2.01846747E-07
 3  9-1.22139779E-06 0.00000000E+00 0.00000000E+00 1.38837139E-06 8.44363151E-06
 3 10 0.00000000E+00 0.00000000E+00-6.75571906E-06-1.67821946E-06-1.67822278E-06
 3 11-3.87563251E-07 0.00000000E+00 0.00000000E+00 0.00000000E+00-2.21629343E-06
 3 12-7.08256807E-06-3.38763481E-11 0.00000000E+00 5.31646131E-06 4.25372712E-05
 3 13 1.73163692E-11-1.50031666E-11-1.98854050E-05-5.70756489E-06-5.70754736E-06
 3 14-3.41499020E-06 0.00000000E+00 0.00000000E+00 0.00000000E+00-1.31998625E-06
 3 15-1.31447827E-05-1.00916019E-07 1.74789469E-07 3.72694821E-06-1.31999286E-06
 3 16-1.31447924E-05-1.00918972E-07-1.74796692E-07 3.72694671E-06-1.31997424E-06
 3 17-1.31447988E-05 2.01813728E-07 0.00000000E+00 3.72694833E-06
 4  1 5.65294965E-05 1.96851291E-04-4.45750865E-08 8.31405774E-07 9.95836977E-01
 4  2-1.33706851E-05-4.98443106E-10 9.30200095E-09 1.11712938E-02-2.83212228E-04
 4  3 6.46296360E-11-1.28894609E-09-1.62482773E-03 1.55805081E-04-1.89228651E-11
 4  4 5.49474603E-10 7.58553419E-04-1.10421393E-05-1.10421398E-05 1.06666216E-05
 4  5 0.00000000E+00 0.00000000E+00 1.89150716E-11-5.95893667E-05-5.95893652E-05
 4  6-6.30199698E-05 0.00000000E+00 0.00000000E+00 0.00000000E+00-1.52648064E-04
 4  7-1.52648067E-04-1.67553147E-04 0.00000000E+00 0.00000000E+00 0.00000000E+00
 4  8-5.65946635E-07-6.83331414E-06 0.00000000E+00 0.00000000E+00-5.61776307E-06
 4  9-1.22659031E-05 0.00000000E+00 0.00000000E+00 2.98005081E-05 8.76688147E-05
 4 10-1.12939479E-11 0.00000000E+00-7.32576349E-05-2.04385911E-05-2.04385906E-05
 4 11-1.46761692E-05 0.00000000E+00 0.00000000E+00 0.00000000E+00-2.36397747E-05
 4 12-4.00519693E-05 2.67748298E-11 0.00000000E+00 5.76586980E-05 4.53128326E-04
 4 13 2.90702219E-11 1.09809283E-11-8.64278235E-05-5.34666418E-05-5.34666746E-05
 4 14-7.20095817E-05 0.00000000E+00 0.00000000E+00 0.00000000E+00 2.45827618E-06
 4 15-2.33902592E-04-6.19467317E-06 1.07294788E-05 3.89379445E-05 2.45825714E-06
 4 16-2.33902434E-04-6.19466375E-06-1.07294746E-05 3.89379244E-05 2.45821966E-06
 4 17-2.33902542E-04 1.23893624E-05 0.00000000E+00 3.89379412E-05
 5  1-4.48313506E-11-1.54770711E-10 6.82740354E-01 7.24969235E-01-5.74687368E-07
 5  2 0.00000000E+00 7.63387057E-03 8.10604100E-03-6.44315724E-09 1.71197608E-10
 5  3-1.05483367E-03-1.12007728E-03 9.34837185E-10-8.63723362E-11 4.56753588E-04
 5  4 4.85004725E-04-4.38657815E-10 1.42059497E-07-1.42052758E-07 0.00000000E+00
 5  5-1.74180147E-07 1.03739332E-05 1.10155842E-05-4.65311214E-07 4.65375497E-07
 5  6 3.66417305E-11 5.70566178E-07-4.82652399E-06-5.12505989E-06 1.08655825E-06
 5  7-1.08636916E-06 9.12379777E-11-1.33213729E-06 6.06271182E-06 6.43769554E-06
 5  8 0.00000000E+00 0.00000000E+00 9.19430520E-07 9.76301893E-07 0.00000000E+00
 5  9-1.86991668E-11-4.88350198E-06-5.18555782E-06-1.01160107E-11 1.57069353E-11
 5 10 1.12046287E-05 1.18976588E-05 1.48665273E-11 4.43995187E-07-4.43994474E-07
 5 11 0.00000000E+00-5.44394043E-07-1.74393958E-06-1.85180341E-06 2.73201213E-11
 5 12 0.00000000E+00 4.91749415E-06 5.22164938E-06-1.87299816E-11-3.26884348E-10
 5 13 1.02470172E-05 1.08807889E-05 0.00000000E+00 3.50874016E-06-3.50868009E-06
 5 14 8.93006360E-11-4.30209085E-06 3.61598106E-06 3.83963521E-06 4.45727299E-06
 5 15-3.08903019E-05-5.23953410E-06 2.09965322E-07 4.10112589E-06-1.50799829E-05
 5 16 1.04510944E-04 3.81850291E-06 8.74040950E-06-1.38753188E-05 1.06228108E-05
 5 17-7.36202540E-05 6.67701379E-06-3.36930409E-06 9.77413517E-06
 6  1 3.70581957E-11 1.28246014E-10 7.24969235E-01-6.82740354E-01 6.02441984E-07
 6  2 0.00000000E+00 8.10604100E-03-7.63387056E-03 6.75501259E-09-1.68114008E-10
 6  3-1.12007728E-03 1.05483367E-03-9.86423591E-10 9.30374262E-11 4.85004726E-04
 6  4-4.56753587E-04 4.61315868E-10 1.50833733E-07-1.50848775E-07 0.00000000E+00
 6  5 1.64030984E-07 1.10155790E-05-1.03739277E-05-4.94157272E-07 4.94090601E-07
 6  6-3.60199603E-11-5.37331398E-07-5.12506282E-06 4.82652737E-06 1.15357154E-06
 6  7-1.15376464E-06-1.00424580E-10 1.25454304E-06 6.43769582E-06-6.06271295E-06
 6  8 0.00000000E+00 0.00000000E+00 9.76298801E-07-9.19427792E-07 0.00000000E+00
 6  9-3.24847243E-11-5.18556288E-06 4.88351092E-06 2.17207699E-11 1.20261410E-10
 6 10 1.18976526E-05-1.12046341E-05-7.67402458E-11 4.71436669E-07-4.71481213E-07
 6 11-1.08152515E-11 5.12681132E-07-1.85180070E-06 1.74393978E-06-1.14771362E-11
 6 12-4.42126680E-11 5.22166011E-06-4.91748397E-06 4.57647816E-11 2.05378856E-10
 6 13 1.08808191E-05-1.02469979E-05-1.01013467E-10 3.72570964E-06-3.72575518E-06
 6 14 0.00000000E+00 4.05148715E-06 3.83962993E-06-3.61597877E-06-1.48395009E-05
 6 15 1.02843950E-04 3.51073288E-06-8.74352800E-06-1.36539918E-05 3.55974321E-06
 6 16-2.46702841E-05-5.01967360E-06 3.14517297E-07 3.27533849E-06 1.12798332E-05
 6 17-7.81740954E-05 7.09002688E-06 3.17304668E-06 1.03787330E-05
 7  1-1.74851331E-07 8.36744623E-06 0.00000000E+00 0.00000000E+00 2.74701466E-05
 7  2 8.40172954E-05 0.00000000E+00 1.52041097E-11-9.71444605E-05 6.89391444E-04
 7  3 2.43365145E-11 0.00000000E+00 3.01984044E-04 5.92225268E-04-9.21074989E-11
 7  4 0.00000000E+00 5.76236754E-04 1.10192511E-05 1.10192411E-05 4.39777612E-05
 7  5 0.00000000E+00 0.00000000E+00 0.00000000E+00 1.45789785E-04 1.45789777E-04
 7  6-2.35388968E-05 0.00000000E+00 1.56541387E-11 0.00000000E+00 5.13439511E-05
 7  7 5.13439772E-05 7.07234128E-04 0.00000000E+00-4.25868478E-11 1.12304240E-11
 7  8-8.11340134E-06-2.70832878E-05 0.00000000E+00 1.10889381E-11 5.21293099E-05
 7  9-2.66498395E-04-3.08785146E-11 0.00000000E+00-1.70493964E-04 8.09063362E-04
 7 10 9.82143413E-11 0.00000000E+00-6.57121919E-04-8.88799393E-05-8.88799484E-05
 7 11 2.87723832E-04 0.00000000E+00-1.92411644E-11 0.00000000E+00 9.95985500E-01
 7 12 2.65187049E-02 0.00000000E+00 1.11038324E-11-4.69106796E-05-1.23169329E-02
 7 13 5.52002179E-11 0.00000000E+00 2.22733257E-05-9.35642969E-04-9.35642978E-04
 7 14-2.26286234E-03 0.00000000E+00-1.49544667E-10 0.00000000E+00-1.23526808E-04
 7 15 2.30159307E-03-1.26028126E-04 2.18287117E-04-1.73691962E-06-1.23526820E-04
 7 16 2.30159310E-03-1.26028121E-04-2.18287115E-04-1.73691989E-06-1.23526803E-04
 7 17 2.30159298E-03 2.52056283E-04 0.00000000E+00-1.73693315E-06
 8  1 6.59178252E-07-6.52505601E-07 0.00000000E+00 0.00000000E+00 9.93869031E-06
 8  2 2.82896066E-05 0.00000000E+00 0.00000000E+00-3.52467839E-05 3.55417095E-04
 8  3 0.00000000E+00 0.00000000E+00 1.38054202E-04-5.34932693E-05-1.15458455E-11
 8  4 0.00000000E+00-3.56534019E-06 1.18880106E-05 1.18880104E-05 1.95289842E-05
 8  5 0.00000000E+00 0.00000000E+00 0.00000000E+00 7.97252229E-05 7.97252236E-05
 8  6 4.38201432E-05 0.00000000E+00 0.00000000E+00 0.00000000E+00 1.48892740E-04
 8  7 1.48892741E-04 2.79028228E-04 0.00000000E+00-1.24811678E-11 0.00000000E+00
 8  8-2.86757522E-01 1.03066702E+00 3.71363479E-11 0.00000000E+00-1.37011358E-03
 8  9 2.58014347E-02-1.03890304E-11 0.00000000E+00-5.40012423E-04-6.26980336E-03
 8 10 2.57812604E-11 0.00000000E+00 9.50168410E-04-1.55327079E-03-1.55327079E-03
 8 11-1.57176245E-03 0.00000000E+00 0.00000000E+00 0.00000000E+00-2.23270644E-05
 8 12-1.05106973E-04 0.00000000E+00 1.55663370E-11-3.53728593E-05-3.56245289E-04
 8 13 1.63914321E-10 1.97559539E-11 8.38105349E-04-2.68841150E-05-2.68841529E-05
 8 14 1.86193212E-04 0.00000000E+00 2.84879112E-11 0.00000000E+00-1.03800769E-04
 8 15 5.74644688E-04 3.66159941E-05-6.34207800E-05 2.11185374E-05-1.03800754E-04
 8 16 5.74644715E-04 3.66160034E-05 6.34207832E-05 2.11185350E-05-1.03800776E-04
 8 17 5.74644439E-04-7.32319750E-05 0.00000000E+00 2.11184924E-05
 9  1-1.24334105E-01-4.79216560E-01-1.69847948E-11 0.00000000E+00 4.59675008E-04
 9  2 1.09607155E+00 4.34572578E-11 0.00000000E+00-1.16779083E-03-1.06383258E-03
 9  3 0.00000000E+00 0.00000000E+00-1.97304667E-04 1.05511236E-03 1.38992439E-11
 9  4 0.00000000E+00 1.53615708E-04 1.32200471E-03 1.32200471E-03 1.01075110E-03
 9  5 0.00000000E+00 1.73015973E-11 0.00000000E+00 4.51501878E-05 4.51501889E-05
 9  6-3.92908529E-04 0.00000000E+00 2.35817777E-11 0.00000000E+00-2.36649516E-03
 9  7-2.36649516E-03-2.31299470E-03 0.00000000E+00 0.00000000E+00 0.00000000E+00
 9  8-1.15280749E-06 8.88609964E-07 0.00000000E+00 3.07742510E-11-5.17308867E-06
 9  9-9.00529582E-06-1.26654918E-11-1.31717215E-11 2.33776733E-05 2.77016853E-05
 9 10 1.66613837E-11 0.00000000E+00-2.28575387E-05-6.34892198E-06-6.34892505E-06
 9 11-1.08988419E-05 0.00000000E+00 0.00000000E+00 0.00000000E+00-1.76182995E-06
 9 12-3.77585068E-05 1.00362202E-10 0.00000000E+00 4.21938826E-05 2.82830342E-04
 9 13-1.84600607E-11 0.00000000E+00 2.21281752E-05-1.48097195E-05-1.48097700E-05
 9 14-3.13230638E-05 0.00000000E+00 0.00000000E+00 0.00000000E+00 1.05072287E-05
 9 15-1.60915492E-04-5.30843432E-06 9.19447265E-06 2.24571718E-05 1.05072271E-05
 9 16-1.60915474E-04-5.30843626E-06-9.19447337E-06 2.24571694E-05 1.05071714E-05
 9 17-1.60915493E-04 1.06169230E-05 0.00000000E+00 2.24571869E-05
10  1-1.30692159E-06 8.90434998E-06 0.00000000E+00 0.00000000E+00-1.10791967E-05
10  2-2.97401443E-06 0.00000000E+00 2.03594070E-11 4.00530304E-05-4.21567233E-04
10  3-1.33051463E-11 0.00000000E+00-1.91455279E-04 5.17763646E-04 4.90123605E-11
10  4 0.00000000E+00 3.40967858E-04-1.58385995E-05-1.58385999E-05-1.41955836E-05
10  5 0.00000000E+00 0.00000000E+00 0.00000000E+00-9.82754451E-05-9.82754434E-05
10  6-1.06499474E-04 0.00000000E+00-1.02604584E-11 0.00000000E+00-3.15716370E-04
10  7-3.15716376E-04-3.01488171E-04 0.00000000E+00 2.45469128E-11 0.00000000E+00
10  8-4.70544664E-04 1.68756763E-03-1.41094979E-08-3.13373544E-08 9.93257831E-01
10  9-1.05692871E-03-2.95066951E-10-6.59381591E-10 2.14491440E-02 7.64530099E-04
10 10 3.09181215E-11 1.57683550E-10-5.49407425E-03 1.84945813E-04 1.84945818E-04
10 11-2.55340878E-05 0.00000000E+00 0.00000000E+00 0.00000000E+00-7.24826911E-05
10 12-1.85224539E-04 0.00000000E+00 0.00000000E+00-2.53058885E-04 1.57985955E-03
10 13-2.43770989E-10-1.45864823E-11-8.15797282E-05-1.53930024E-04-1.53929955E-04
10 14-2.96905223E-04 0.00000000E+00-5.33339069E-11 0.00000000E+00 3.81971055E-05
10 15-1.07372269E-03-3.73690852E-05 6.47251750E-05-1.63479842E-04 3.81970965E-05
10 16-1.07372265E-03-3.73690761E-05-6.47251742E-05-1.63479845E-04 3.81972439E-05
10 17-1.07372239E-03 7.47381359E-05 0.00000000E+00-1.63479777E-04
11  1 0.00000000E+00 0.00000000E+00 1.43740217E-06 1.99765161E-06 3.21073769E-11
11  2-1.54964484E-11-5.24705337E-06-7.29213133E-06-8.34071732E-11-4.38741404E-11
11  3 2.75340514E-05 3.82651378E-05 0.00000000E+00 0.00000000E+00-6.55728593E-05
11  4-9.11291465E-05-1.11362872E-11-2.56303375E-07 2.56311622E-07 0.00000000E+00
11  5 4.11307550E-07-1.40524534E-06-1.95291735E-06 1.31022060E-06-1.31023514E-06
11  6 0.00000000E+00-2.10256475E-06 7.21374885E-06 1.00252292E-05-3.86071506E-06
11  7 3.86068680E-06-2.44357034E-11 6.19540081E-06-2.12491289E-05-2.95307330E-05
11  8 0.00000000E+00 2.98138889E-11 5.80278617E-01 8.06435738E-01 3.36769208E-08
11  9-3.21197624E-11 1.19874925E-02 1.66594840E-02 7.05859158E-10 0.00000000E+00
11 10-2.71847713E-03-3.77797331E-03-1.63627146E-10-1.28007426E-06 1.28009911E-06
11 11 0.00000000E+00 2.05420181E-06-6.10325370E-05-8.48192838E-05-3.47982493E-11
11 12 2.45230767E-11-2.75270887E-05-3.82555098E-05-1.66232858E-11 2.81561288E-10
11 13 1.96369632E-05 2.72901799E-05 3.40641016E-11-1.19457841E-05 1.19455494E-05
11 14-5.37980699E-11 1.91697041E-05 3.17156405E-05 4.40764396E-05-4.29119404E-05
11 15 2.23982134E-04 1.80049148E-05-1.47126512E-05 3.50434425E-05 1.03905580E-04
11 16-5.42342570E-04-2.55427070E-05-4.60476854E-05-8.48529854E-05-6.09936033E-05
11 17 3.18360209E-04-3.09060006E-05 7.33315397E-06 4.98095054E-05
12  1 0.00000000E+00 0.00000000E+00 1.99766714E-06-1.43742336E-06-2.32248998E-11
12  2 1.98855281E-11-7.29217058E-06 5.24710690E-06 6.04810667E-11-4.82137339E-11
12  3 3.82651387E-05-2.75340528E-05 0.00000000E+00-4.16549690E-11-9.11291531E-05
12  4 6.55728535E-05-2.95825451E-11-3.56199297E-07 3.56205345E-07 0.00000000E+00
12  5-2.95961511E-07-1.95291525E-06 1.40524330E-06 1.82086623E-06-1.82088132E-06
12  6 0.00000000E+00 1.51292063E-06 1.00252328E-05-7.21374975E-06-5.36537814E-06
12  7 5.36537481E-06-2.04724119E-11-4.45795871E-06-2.95307366E-05 2.12491217E-05
12  8 0.00000000E+00-3.21127549E-11 8.06435738E-01-5.80278617E-01-6.84369870E-09
12  9 0.00000000E+00 1.66594840E-02-1.19874925E-02-1.54532799E-10-2.81223090E-11
12 10-3.77797329E-03 2.71847715E-03 6.44080979E-11-1.77898384E-06 1.77899097E-06
12 11-1.15486028E-11-1.47811497E-06-8.48192886E-05 6.10325376E-05-2.20230983E-11
12 12 2.93122511E-11-3.82554745E-05 2.75271224E-05 0.00000000E+00 2.82148801E-10
12 13 2.72902535E-05-1.96369115E-05 5.28922402E-11-1.66015218E-05 1.66012085E-05
12 14-5.82131903E-11-1.37937524E-05 4.40764520E-05-3.17156285E-05 9.52045923E-05
12 15-4.96927040E-04-2.09053372E-05 4.36340970E-05-7.77474395E-05-1.04393747E-05
12 16 5.44892953E-05 1.04297736E-05 8.65854902E-08 8.52519270E-06-8.47651646E-05
12 17 4.42437610E-04-4.29512820E-05-5.27664490E-06 6.92222070E-05
13  1-1.58805954E-04-6.29551130E-04 1.32899793E-08 3.39968150E-10-4.10030590E-01
13  2 1.35631168E-03-3.48073387E-08-8.92081215E-10 1.07391191E+00 3.94485989E-04
13  3-2.95173443E-10 0.00000000E+00 9.30524152E-03-3.34572158E-05 2.80497339E-11
13  4 0.00000000E+00-1.31259683E-03-3.18310254E-04-3.18310251E-04 5.07579790E-04
13  5 0.00000000E+00-3.18393873E-11 0.00000000E+00 3.64564008E-05 3.64563930E-05
13  6 4.60666370E-04 0.00000000E+00 0.00000000E+00 0.00000000E+00 1.55850440E-04
13  7 1.55850444E-04 2.52270278E-04 0.00000000E+00 0.00000000E+00 0.00000000E+00
13  8 1.28617288E-06 7.60388118E-06 0.00000000E+00 8.94583848E-11 8.04968765E-06
13  9 3.30976609E-05 3.35478986E-11 0.00000000E+00-3.33423988E-05-1.40611800E-04
13 10-4.40645947E-11 0.00000000E+00 1.10648324E-04 2.32493436E-05 2.32493418E-05
13 11 6.82490174E-06 0.00000000E+00 0.00000000E+00 0.00000000E+00 2.82363780E-05
13 12 1.96447496E-04-7.22568063E-11 0.00000000E+00-6.08862085E-05-6.55535166E-04
13 13 0.00000000E+00 0.00000000E+00 2.69788584E-04 5.01752662E-05 5.01752787E-05
13 14-5.09770334E-05 0.00000000E+00 0.00000000E+00 0.00000000E+00 1.90694574E-05
13 15 2.76235973E-04 1.07966441E-06-1.86997639E-06-5.84370290E-05 1.90694566E-05
13 16 2.76235983E-04 1.07966412E-06 1.86997312E-06-5.84370267E-05 1.90695173E-05
13 17 2.76235994E-04-2.15931301E-06 0.00000000E+00-5.84370193E-05
14  1 0.00000000E+00 0.00000000E+00-3.26579986E-01-2.48006342E-01-1.07898111E-08
14  2 4.09631241E-11 8.55411863E-01 6.49603701E-01 2.82609534E-08-5.05872639E-11
14  3 6.95896092E-03 5.28466691E-03 2.41383847E-10 1.39929835E-11-9.07510436E-04
14  4-6.89167600E-04-2.01856693E-11-8.89881549E-08 8.90077097E-08 3.07540928E-11
14  5 7.80241789E-08 3.00291544E-04 2.28042775E-04 1.44965260E-06-1.44967573E-06
14  6 1.17218110E-11-1.27119933E-06 2.52127302E-04 1.91466632E-04-9.85317622E-07
14  7 9.85274124E-07 0.00000000E+00 8.63992946E-07-1.27821453E-05-9.70682102E-06
14  8 0.00000000E+00 1.43959667E-11-1.00292073E-06-7.61686740E-07 0.00000000E+00
14  9 1.44027145E-10 3.36153261E-06 2.55277022E-06-2.97559589E-11-3.71962212E-10
14 10-7.07790187E-06-5.37499447E-06 1.55708733E-10-5.03169163E-07 5.03282044E-07
14 11 1.54815937E-11 4.41275636E-07 2.82350653E-07 2.14416852E-07-5.36916300E-11
14 12 1.32024046E-10-3.62634345E-07-2.75365799E-07-5.06488873E-11 4.09274169E-10
14 13-5.32386830E-05-4.04296830E-05 2.07337714E-10-8.06727883E-06 8.06704786E-06
14 14-1.85756377E-10 7.07393369E-06 5.65069259E-06 4.29116129E-06 4.66167416E-07
14 15 1.62478628E-05 9.75566890E-06 4.42442209E-06-2.05002147E-06-3.42400968E-06
14 16-1.19301816E-04-2.36554417E-07-8.73357885E-06 1.50524989E-05 2.95758143E-06
14 17 1.03053899E-04-6.63558595E-06 6.49894672E-06-1.30024915E-05
15  1 0.00000000E+00 0.00000000E+00 2.48006342E-01-3.26579986E-01 7.76688926E-09
15  2-2.86796482E-11-6.49603701E-01 8.55411863E-01-2.03460086E-08 3.51000417E-11
15  3-5.28466691E-03 6.95896092E-03-1.59637520E-10-2.23244105E-11 6.89167596E-04
15  4-9.07510439E-04 0.00000000E+00 6.75751886E-08-6.75893073E-08-2.47043087E-11
15  5 1.02739761E-07-2.28042780E-04 3.00291549E-04-1.10087158E-06 1.10089374E-06
15  6-1.16475814E-11-1.67394324E-06-1.91466636E-04 2.52127302E-04 7.48248490E-07
15  7-7.48230034E-07 1.15274672E-11 1.13772729E-06 9.70681685E-06-1.27821476E-05
15  8 0.00000000E+00 0.00000000E+00 7.61639641E-07-1.00288726E-06-2.19320062E-11
15  9-1.04624513E-10-2.55276463E-06 3.36153632E-06 2.97985211E-11 2.78182568E-10
15 10 5.37498519E-06-7.07791820E-06-1.31980228E-10 3.82111719E-07-3.82197408E-07
15 11 0.00000000E+00 5.81076796E-07-2.14409987E-07 2.82349963E-07 2.97110662E-11
15 12-9.99982448E-11 2.75391687E-07-3.62605565E-07 5.37019446E-11-2.95875391E-10
15 13 4.04297022E-05-5.32386537E-05-1.60703991E-10 6.12632278E-06-6.12615557E-06
15 14 1.30114104E-10 9.31510555E-06-4.29116925E-06 5.65069231E-06 3.68443429E-06
15 15 1.28377162E-04 2.96455396E-06-7.83331929E-06-1.61975554E-05-1.43823504E-06
15 16-5.01175205E-05-1.01934193E-05 2.15893144E-06 6.32340491E-06-2.24600215E-06
15 17-7.82596039E-05 5.03909326E-06 8.55795033E-06 9.87414733E-06
16  1-9.74887623E-05-3.11668971E-04-1.18306849E-11 0.00000000E+00 3.12921831E-04
16  2 1.15581257E-03 3.09809227E-11 0.00000000E+00-8.57794471E-04-6.80794428E-04
16  3 0.00000000E+00 0.00000000E+00-1.88539290E-04 2.92738901E-03-4.08574217E-11
16  4 0.00000000E+00 2.65240981E-03-3.74322306E-01-3.74322307E-01 7.48650479E-01
16  5-6.08975818E-10-5.00376260E-08 1.01643129E-09-1.94653162E-01-1.94653162E-01
16  6 3.89358654E-01-3.16003156E-10-2.60346295E-08 5.28848795E-10-2.05610401E-02
16  7-2.05610402E-02 3.91217437E-02-3.00833491E-11-2.59772911E-09 5.28568973E-11
16  8 5.87828787E-06 4.50804935E-05-2.28240728E-11 0.00000000E+00 1.45349357E-05
16  9 2.12562872E-04 9.87357193E-11 0.00000000E+00-7.73653354E-05-9.29429645E-04
16 10-1.56869817E-10 0.00000000E+00 7.14622611E-04 1.22736316E-04 1.22736308E-04
16 11-5.83819107E-05 0.00000000E+00 0.00000000E+00 0.00000000E+00 9.79702602E-05
16 12 1.37442826E-03-2.13306045E-10 0.00000000E+00-9.12275958E-04-3.69080345E-03
16 13 9.68495594E-11 0.00000000E+00 3.33151172E-03 3.26694977E-04 3.26695210E-04
16 14-1.93969466E-04 0.00000000E+00 1.85619868E-11 0.00000000E+00 2.77009749E-04
16 15 2.32438398E-04-2.91010701E-05 5.04043855E-05-2.49583243E-04 2.77009747E-04
16 16 2.32438427E-04-2.91010696E-05-5.04043834E-05-2.49583245E-04 2.77010036E-04
16 17 2.32438280E-04 5.82017572E-05 0.00000000E+00-2.49583227E-04
17  1 0.00000000E+00 1.16329165E-11 2.26352501E-04-1.27888870E-04 1.79073628E-11
17  2 1.09682880E-10-6.37544179E-04 3.60211634E-04-5.03522489E-11 8.46442817E-11
17  3 2.06079680E-04-1.16434745E-04 1.63364651E-11 2.54926992E-10 1.08920232E-04
17  4-6.15397891E-05 1.98396151E-10 5.35763410E-04-5.35807409E-04 4.40987110E-08
17  5 3.49579597E-04 6.51877674E-01-3.68310045E-01 2.79122212E-04-2.79145091E-04
17  6 2.29249262E-08 1.82124061E-04 3.39092165E-01-1.91586636E-01 2.64383044E-05
17  7-2.64406783E-05 2.33759287E-09 1.72508197E-05 3.38514784E-02-1.91260416E-02
17  8 0.00000000E+00 0.00000000E+00 8.07553118E-06-4.56265718E-06 0.00000000E+00
17  9-4.95251577E-11-4.81485438E-05 2.72038480E-05 0.00000000E+00-2.00851453E-11
17 10 1.41273285E-04-7.98192160E-05 2.15685875E-11-6.00005933E-07 6.00049835E-07
17 11 1.46126583E-11-3.91462191E-07-2.21110572E-05 1.24927215E-05 3.25691122E-11
17 12-1.78506614E-10 1.63649824E-04-9.24619886E-05-5.19915350E-11 1.27080296E-10
17 13-8.94815173E-04 5.05569725E-04 2.44940238E-10-8.37542157E-05 8.37547350E-05
17 14 1.44018110E-11-5.46417552E-05 4.36251707E-05-2.46481492E-05-2.87796323E-04
17 15-1.59383767E-04 2.40279238E-05 4.34425850E-05 4.99175331E-05-3.11178611E-06
17 16-1.72327154E-06 7.23564550E-05-4.20949198E-05 5.39781550E-07 2.90908111E-04
17 17 1.61106466E-04-2.58851257E-05-4.11799550E-05-5.04571833E-05
18  1 0.00000000E+00 0.00000000E+00 1.27888868E-04 2.26352498E-04 0.00000000E+00
18  2 6.36565416E-11-3.60211631E-04-6.37544172E-04-2.54538537E-11 3.83614562E-11
18  3 1.16434747E-04 2.06079672E-04 0.00000000E+00 1.28758805E-10 6.15397817E-05
18  4 1.08920246E-04 1.06264266E-10 3.02706788E-04-3.02730480E-04 2.37478799E-08
18  5-6.18726489E-04 3.68310045E-01 6.51877674E-01 1.57704290E-04-1.57716607E-04
18  6 1.23456550E-08-3.22344273E-04 1.91586636E-01 3.39092165E-01 1.49376704E-05
18  7-1.49389438E-05 1.26164010E-09-3.05325002E-05 1.91260416E-02 3.38514784E-02
18  8 0.00000000E+00 0.00000000E+00 4.56266196E-06 8.07553019E-06 0.00000000E+00
18  9-3.03448695E-11-2.72038616E-05-4.81485294E-05 0.00000000E+00 0.00000000E+00
18 10 7.98192239E-05 1.41273263E-04 1.27621463E-11-3.39002705E-07 3.39027980E-07
18 11 0.00000000E+00 6.92854838E-07-1.24927183E-05-2.21110610E-05 1.83348887E-11
18 12-9.87265570E-11 9.24619408E-05 1.63649916E-04-3.67859775E-11 9.82291309E-11
18 13-5.05569415E-04-8.94815709E-04 1.35855053E-10-4.73210219E-05 4.73213148E-05
18 14 0.00000000E+00 9.67113075E-05 2.46481695E-05 4.36251385E-05 1.69752454E-04
18 15 9.40102428E-05 6.99972354E-05 2.29716549E-05-2.94430687E-05-3.34115155E-04
18 16-1.85035519E-04-1.55401846E-05-2.53569264E-05 5.79513843E-05 1.64362699E-04
18 17 9.10249260E-05-1.46250576E-05 7.28850361E-05-2.85082430E-05
19  1 0.00000000E+00 0.00000000E+00 2.48154363E-07-1.59468270E-10 0.00000000E+00
19  2-1.44262771E-11-5.34041575E-07 3.44530116E-10 0.00000000E+00-1.01033041E-10
19  3-4.81421285E-06 3.06179403E-09-1.14381952E-11 0.00000000E+00 1.43812335E-05
19  4-9.15702391E-09 0.00000000E+00 6.48608204E-01-6.48608203E-01-8.07307736E-10
19  5 4.77160170E-04-7.11000495E-04 4.52453231E-07 3.37095922E-01-3.37095921E-01
19  6-4.30924151E-10 2.47990615E-04-3.68913766E-04 2.34759480E-07 3.35534180E-02
19  7-3.35534180E-02-9.79874303E-11 2.46841689E-05-3.93415688E-05 2.50380140E-08
19  8 0.00000000E+00 0.00000000E+00 1.67691779E-06-1.06888762E-09 0.00000000E+00
19  9 0.00000000E+00-8.04513136E-06 5.12214027E-09 0.00000000E+00 1.86457893E-11
19 10 1.14647359E-05-7.30205614E-09-1.27899037E-11 1.68736709E-06-1.68737105E-06
19 11 0.00000000E+00 1.24179777E-09 1.57218979E-06-1.00227350E-09 0.00000000E+00
19 12-1.96911796E-11-2.78754971E-05 1.77614436E-08 0.00000000E+00 1.03388754E-10
19 13 3.75974240E-04-2.39532062E-07-1.07134660E-10 1.95550757E-05-1.95551306E-05
19 14 0.00000000E+00 1.43836806E-08 2.92351700E-06-1.86201313E-09-1.61290705E-05
19 15 2.23842488E-04-8.74031965E-06-2.54037895E-05 4.05870637E-06-1.60935130E-05
19 16 2.23349026E-04-8.77267071E-06 2.53775909E-05 4.04975811E-06 3.22226237E-05
19 17-4.47191627E-04 3.52214039E-05 1.49177569E-08-8.10830561E-06
20  1 0.00000000E+00 0.00000000E+00-1.57375543E-10-2.48143889E-07 0.00000000E+00
20  2 0.00000000E+00 3.38805902E-10 5.34010947E-07 0.00000000E+00 0.00000000E+00
20  3 3.06628194E-09 4.81425740E-06 0.00000000E+00 0.00000000E+00-9.16102002E-09
20  4-1.43812134E-05 0.00000000E+00-4.13233132E-04 4.13232524E-04 6.07684632E-10
20  5 7.48948242E-01 4.53047401E-07 7.11063062E-04-2.14766330E-04 2.14766014E-04
20  6 3.15468819E-10 3.89244842E-01 2.35067050E-07 3.68946289E-04-2.13771342E-05
20  7 2.13771011E-05 2.79703976E-11 3.87441498E-02 2.50686929E-08 3.93448392E-05
20  8 0.00000000E+00 0.00000000E+00-1.06879938E-09-1.67696077E-06 0.00000000E+00
20  9 0.00000000E+00 5.12633761E-09 8.04532836E-06 0.00000000E+00 0.00000000E+00
20 10-7.30229847E-09-1.14650796E-05 0.00000000E+00-1.07368303E-09 1.07655675E-09
20 11 0.00000000E+00 1.94839960E-06-1.00160143E-09-1.57218590E-06 0.00000000E+00
20 12 0.00000000E+00 1.77617123E-08 2.78757286E-05 0.00000000E+00 0.00000000E+00
20 13-2.39525093E-07-3.75973681E-04 0.00000000E+00-1.24592216E-08 1.24597392E-08
20 14 0.00000000E+00 2.25799962E-05-1.86161359E-09-2.92349813E-06-2.78954609E-05
20 15 3.87136330E-04 2.53959663E-05-2.05455777E-05 7.01943314E-06 2.79159892E-05
20 16-3.87421229E-04-2.53848101E-05-2.05779308E-05-7.02459993E-06-2.05282240E-08
20 17 2.84896833E-07-2.24390713E-08 2.34156987E-05 5.16523055E-09
21  1-8.90708484E-03-3.22416941E-02 4.77120229E-11 0.00000000E+00 5.04974964E-03
21  2 1.00923227E-01-1.89835873E-10 0.00000000E+00-1.66359632E-02-1.96279988E-01
21  3 3.68733581E-10 0.00000000E+00 3.28237185E-02 5.73630695E-02 4.74977568E-10
21  4 0.00000000E+00 3.45628800E-03 1.54563277E-03 1.54563281E-03-3.99030859E-03
21  5 0.00000000E+00-6.77537249E-11 0.00000000E+00-4.47661307E-04-4.47661276E-04
21  6-2.25580676E-03 0.00000000E+00-7.46649161E-11 0.00000000E+00-4.25969924E-03