!
! NEO-MCSCF calculation on H2.
! H nuclei are treated high-spin with built in 2s basis set.
! NEO electronic and nuclear MOs from a previous NEO-HF 
! C2v calculation are read in. A NEO-FCI within a limited electronic
! active space, (2e,4orbs) and all nuclear orbitals active (2nuc,4 orbs),
! is performed.
!
! FINAL MCSCF ENERGY IS       -1.0712002101 AFTER  14 ITERATIONS
!
!NEO-CI energies and CI coeficients of states 1 and 2:
!
! STATE=  1 ENERGY =        -1.0712002080
!
!ALPHA |BETA  ||ALPHA |BETA  | COEFFICIENT
!------|------||------|------|------------
! 1100 | 0000 || 1000 | 1000 |  -0.9928328
! 1100 | 0000 || 0100 | 0100 |   0.0711136
! 1100 | 0000 || 0010 | 0010 |   0.0592363
!
! STATE=  2 ENERGY =        -1.0204582450
!
!ALPHA |BETA  ||ALPHA |BETA  | COEFFICIENT
!------|------||------|------|------------
! 1010 | 0000 || 1000 | 1000 |  -0.7019135
! 1010 | 0000 || 0100 | 0100 |   0.0511253
! 0101 | 0000 || 1000 | 1000 |   0.7019134
! 0101 | 0000 || 0100 | 0100 |  -0.0511253
!
 $CONTRL SCFTYP=MCSCF CITYP=NONE  RUNTYP=ENERGY $END
 $SYSTEM TIMLIM=9999 MEMORY=25000000 $END
 $NEO NEOSCF=MCSCF NEOCI=NONE BASNUC=DZSNB NUNIQN=1 IUNIQN(1)=1 
      NUMULT=3  $END
 $DET  NCORE=0 NACT=4 NELS=2 $END
 $NEODET NACT=4 NUCLEI=2 NSTATE=4 SZ=1.0 NFLGDM(1)=1,1,1,1 $END
 $BASIS  GBASIS=N31 NGAUSS=6 NPFUNC=1 $END
 $GUESS  GUESS=MOREAD NORB=10 $END
 $GESNMO GUESS=MOREAD NORB=4 $END
 $DATA
H2 NEO-MCSCF
CNV 2

 H           1.0    .3649993801    .0000000000    .0000000000
 $END
--- CLOSED SHELL ORBITALS --- GENERATED AT Sun Oct  1 05:05:43 2006
H2 NEO-HF/6-31G/DZSNB                                                           
E(RHF)=       -1.0461037103, E(NUC)=    0.0000000000,    5 ITERS
 $VEC   
 1  1 2.98565234E-01 2.91460980E-01 1.96179512E-02 0.00000000E+00 0.00000000E+00
 1  2 2.98565234E-01 2.91460980E-01-1.96179512E-02 0.00000000E+00 0.00000000E+00
 2  1 1.04069286E-01 1.75964809E+00-5.25266050E-04 0.00000000E+00 0.00000000E+00
 2  2-1.04069286E-01-1.75964809E+00-5.25266050E-04 0.00000000E+00 0.00000000E+00
 3  1 7.47652930E-01-6.68173857E-01 3.91901676E-02 0.00000000E+00 0.00000000E+00
 3  2 7.47652930E-01-6.68173857E-01-3.91901676E-02 0.00000000E+00 0.00000000E+00
 4  1-8.42335555E-01 1.38521499E+00 3.25504897E-01 0.00000000E+00 0.00000000E+00
 4  2 8.42335555E-01-1.38521499E+00 3.25504897E-01 0.00000000E+00 0.00000000E+00
 5  1 0.00000000E+00 0.00000000E+00 0.00000000E+00 0.00000000E+00 6.08330724E-01
 5  2 0.00000000E+00 0.00000000E+00 0.00000000E+00 0.00000000E+00 6.08330724E-01
 6  1 0.00000000E+00 0.00000000E+00 0.00000000E+00 6.08330724E-01 0.00000000E+00
 6  2 0.00000000E+00 0.00000000E+00 0.00000000E+00 6.08330724E-01 0.00000000E+00
 7  1-3.94994262E-01 1.91940253E-01 6.51229440E-01 0.00000000E+00 0.00000000E+00
 7  2-3.94994262E-01 1.91940253E-01-6.51229440E-01 0.00000000E+00 0.00000000E+00
 8  1 0.00000000E+00 0.00000000E+00 0.00000000E+00 8.77807419E-01 0.00000000E+00
 8  2 0.00000000E+00 0.00000000E+00 0.00000000E+00-8.77807419E-01 0.00000000E+00
 9  1 0.00000000E+00 0.00000000E+00 0.00000000E+00 0.00000000E+00 8.77807419E-01
 9  2 0.00000000E+00 0.00000000E+00 0.00000000E+00 0.00000000E+00-8.77807419E-01
10  1 1.54298461E+00 1.26537775E-01 1.60237617E+00 0.00000000E+00 0.00000000E+00
10  2-1.54298461E+00-1.26537775E-01 1.60237617E+00 0.00000000E+00 0.00000000E+00
 $END   
--- NUC-HF ORBITALS --- GENERATED AT Sun Oct  1 05:05:43 2006
H2 NEO-HF/6-31G/DZSNB                                                           
E(RHF)=       -1.0461037103, E(NUC)=    0.0000000000,    5 ITERS
 $VECPRO
 1  1 3.71898468E-01 3.39765316E-01 3.71898468E-01 3.39765316E-01
 2  1 3.71898461E-01 3.39765324E-01-3.71898461E-01-3.39765324E-01
 3  1-3.12414409E+00 3.12780182E+00-3.12414409E+00 3.12780182E+00
 4  1-3.12414434E+00 3.12780209E+00 3.12414434E+00-3.12780209E+00
 $END
