!
! Malonaldehyde NEO-MCSCF calculation reading in and reordering
! orbitals from a previous NEO-HF calculation. 
! This calculation uses an auxilary basis function. The two
! basis functions for the single H nucleus are centered 0.46 Angs apart.
! Note that C2v symmetry generates the second center, so NAUXNB=0.
! State averaging is carried out over the first 2 states. 
! Larger electronic (6-31G(d) and nuclear (DZSPDN) basis sets are
! used in this test job than in 01 and 02.
!
! electronic active space -> Pi system - 4 e in 4 orbs. 
! nuclear active space -> 1 proton in 16 oribitals.
!
!FINAL MCSCF ENERGY IS     -265.5639605878 AFTER  39 ITERATIONS
!
!NEO-CI energies and CI coeficients of states 1 and 2:
!
! STATE=  1 ENERGY =      -265.5649564055
!
!      ALPHA       |      BETA        ||ALPHA |BETA  | COEFFICIENT
!------------------|------------------||------|------|------------
! 1000000000000000 | 0000000000000000 || 1100 | 1100 |   0.9864720
! 1000000000000000 | 0000000000000000 || 1010 | 1010 |  -0.1164866
! 1000000000000000 | 0000000000000000 || 0110 | 0110 |  -0.0776459
!
! STATE=  2 ENERGY =      -265.5629647546
!
!      ALPHA       |      BETA        ||ALPHA |BETA  | COEFFICIENT
!------------------|------------------||------|------|------------
! 0100000000000000 | 0000000000000000 || 1100 | 1100 |   0.9863504
! 0100000000000000 | 0000000000000000 || 1010 | 1010 |  -0.1163309
! 0100000000000000 | 0000000000000000 || 0110 | 0110 |  -0.0775833
!
 $CONTRL SCFTYP=MCSCF CITYP=NONE RUNTYP=ENERGY $END 
 $SYSTEM TIMLIM=2000 MEMORY=25000000 $END
 $NEO  NEOSCF=MCSCF NEOCI=NONE BASNUC=DZSPNB NUNIQN=1 NTAUXB=1 NAUXNB=0
       IUNIQN(1)=9 IAUXNB(1)=10 NUMULT=2  $END
 $BASIS GBASIS=N31 NGAUSS=6 NDFUNC=1 $END
 $DET  NCORE=17 NACT=4 NELS=4 $END
 $NEODET NACT=16 NUCLEI=1 NSTATE=4 SZ=0.5 NFLGDM(1)=1,1
         WSTATE(1)=0.5,0.5  $END
 $GUESS  GUESS=MOREAD NORB=85 NORDER=1 IORDER(17)=18,17,19,20 $END
 $GESNMO GUESS=MOREAD NORB=16  $END
 $DATA
NEO-MCSCF TEST
CNV      2

O           8.0      0.0000000000     -1.2043025053      0.8586911247
C           6.0      0.0000000000     -1.2052293448     -0.4659476200
C           6.0      0.0000000000      0.0000000000     -1.2002936900
H           1.0      0.0000000000      0.0000000000     -2.2851870581
H           1.0      0.0000000000     -2.1850230912     -0.9469575466
H           1.0      0.0000000000     -0.2300000000      1.1553078511
 $END      
--- CLOSED SHELL ORBITALS --- GENERATED AT Sun Oct  1 05:32:15 2006
NEO-CI test                                                                     
E(RHF)=     -265.5484154777, E(NUC)=  152.8543190616,   12 ITERS
 $VEC   
 1  1 7.03291213E-01 1.46663590E-02 0.00000000E+00-2.95896099E-04-8.40315069E-04
 1  2 4.18916677E-03 0.00000000E+00-1.93945561E-04 6.83504134E-04-2.97027991E-03
 1  3-2.91491091E-03-3.03588307E-03 0.00000000E+00 0.00000000E+00-2.42168240E-06
 1  4-7.03291213E-01-1.46663590E-02 0.00000000E+00-2.95896099E-04 8.40315069E-04
 1  5-4.18916677E-03 0.00000000E+00-1.93945561E-04-6.83504134E-04 2.97027991E-03
 1  6 2.91491091E-03 3.03588307E-03 0.00000000E+00 0.00000000E+00-2.42168240E-06
 1  7-7.73279883E-06 2.89061115E-04 0.00000000E+00 1.17135770E-05 2.42427700E-04
 1  8 3.89591825E-04 0.00000000E+00-2.39706127E-04-3.61177340E-05-6.17171775E-05
 1  9-3.37147763E-05-1.33275192E-04 0.00000000E+00 0.00000000E+00 2.17482689E-05
 1 10 7.73279883E-06-2.89061115E-04 0.00000000E+00 1.17135770E-05-2.42427700E-04
 1 11-3.89591825E-04 0.00000000E+00-2.39706127E-04 3.61177340E-05 6.17171775E-05
 1 12 3.37147763E-05 1.33275192E-04 0.00000000E+00 0.00000000E+00 2.17482689E-05
 1 13 0.00000000E+00 0.00000000E+00 0.00000000E+00-3.90486354E-05 0.00000000E+00
 1 14 0.00000000E+00 0.00000000E+00-1.97582885E-04 0.00000000E+00 0.00000000E+00
 1 15 0.00000000E+00 0.00000000E+00 0.00000000E+00 0.00000000E+00-6.19292732E-05
 1 16 0.00000000E+00 0.00000000E+00-1.04464594E-05 2.64078310E-05 1.04464594E-05
 1 17-2.64078310E-05 2.42709364E-04-4.57631324E-03-2.42709364E-04 4.57631324E-03
 2  1 7.03330972E-01 1.48287114E-02 0.00000000E+00-2.92977812E-04-8.06296377E-04
 2  2 3.10592502E-03 0.00000000E+00 6.16768155E-05 3.99359867E-04-2.87565803E-03
 2  3-2.84768801E-03-2.89574912E-03 0.00000000E+00 0.00000000E+00 1.72112861E-06
 2  4 7.03330972E-01 1.48287114E-02 0.00000000E+00 2.92977812E-04-8.06296377E-04
 2  5 3.10592502E-03 0.00000000E+00-6.16768155E-05 3.99359867E-04-2.87565803E-03
 2  6-2.84768801E-03-2.89574912E-03 0.00000000E+00 0.00000000E+00-1.72112861E-06
 2  7-9.82369154E-06 3.04611679E-04 0.00000000E+00 2.08080752E-05 2.03701672E-04
 2  8 4.06028699E-04 0.00000000E+00-4.45073910E-04-6.10566159E-05-6.49498312E-05
 2  9-3.97794260E-05-1.90579835E-04 0.00000000E+00 0.00000000E+00 1.38526720E-05
 2 10-9.82369154E-06 3.04611679E-04 0.00000000E+00-2.08080752E-05 2.03701672E-04
 2 11 4.06028699E-04 0.00000000E+00 4.45073910E-04-6.10566159E-05-6.49498312E-05
 2 12-3.97794260E-05-1.90579835E-04 0.00000000E+00 0.00000000E+00-1.38526720E-05
 2 13 8.50694547E-06 8.47508405E-05 0.00000000E+00 0.00000000E+00-4.84360291E-05
 2 14-8.41608176E-04 0.00000000E+00 0.00000000E+00-4.23204564E-04-9.10411400E-06
 2 15 1.67786263E-05-8.34328190E-05 0.00000000E+00 0.00000000E+00 0.00000000E+00
 2 16 1.66203862E-05-1.18935746E-04 6.52910668E-06 1.03963940E-04 6.52910668E-06
 2 17 1.03963940E-04 1.76888356E-04-4.25415366E-04 1.76888356E-04-4.25415366E-04
 3  1-1.06028829E-04 3.36096486E-04 0.00000000E+00 1.84161996E-06-9.03306601E-05
 3  2-1.12028508E-03 0.00000000E+00 8.05394992E-05 1.01534287E-03 2.41607500E-04
 3  3 9.92735515E-05-4.16211187E-04 0.00000000E+00 0.00000000E+00 4.64811720E-05
 3  4-1.06028829E-04 3.36096486E-04 0.00000000E+00-1.84161996E-06-9.03306601E-05
 3  5-1.12028508E-03 0.00000000E+00-8.05394992E-05 1.01534287E-03 2.41607500E-04
 3  6 9.92735515E-05-4.16211187E-04 0.00000000E+00 0.00000000E+00-4.64811720E-05
 3  7 7.04127409E-01 1.81821915E-02 0.00000000E+00-3.95887180E-05 4.91572336E-04
 3  8-4.67327997E-03 0.00000000E+00-8.96118458E-04 1.59277952E-03-1.72420078E-03
 3  9-8.74267595E-04-6.30627225E-04 0.00000000E+00 0.00000000E+00 1.18801880E-04
 3 10 7.04127409E-01 1.81821915E-02 0.00000000E+00 3.95887180E-05 4.91572336E-04
 3 11-4.67327997E-03 0.00000000E+00 8.96118458E-04 1.59277952E-03-1.72420078E-03
 3 12-8.74267595E-04-6.30627225E-04 0.00000000E+00 0.00000000E+00-1.18801880E-04
 3 13 5.84818446E-03 2.52968855E-04 0.00000000E+00 0.00000000E+00-1.12338191E-04
 3 14 2.65234847E-03 0.00000000E+00 0.00000000E+00-1.33270001E-03-7.99981241E-05
 3 15-6.42514830E-04-4.49063368E-04 0.00000000E+00 0.00000000E+00 0.00000000E+00
 3 16-2.52831431E-04-8.41673371E-04-7.59543385E-05 1.95618702E-03-7.59543385E-05
 3 17 1.95618702E-03 1.07666350E-04-5.67638304E-05 1.07666350E-04-5.67638304E-05
 4  1-9.28118429E-05 3.98444649E-04 0.00000000E+00-2.42338935E-05-1.40293033E-04
 4  2-1.03884708E-03 0.00000000E+00-1.80968709E-06 1.01128758E-03 3.61321375E-04
 4  3 9.48627349E-05-3.60152589E-04 0.00000000E+00 0.00000000E+00 4.44739342E-05
 4  4 9.28118429E-05-3.98444649E-04 0.00000000E+00-2.42338935E-05 1.40293033E-04
 4  5 1.03884708E-03 0.00000000E+00-1.80968709E-06-1.01128758E-03-3.61321375E-04
 4  6-9.48627349E-05 3.60152589E-04 0.00000000E+00 0.00000000E+00 4.44739342E-05
 4  7 7.04184378E-01 1.85606760E-02 0.00000000E+00-5.64891492E-05 6.00373277E-04
 4  8-6.88575192E-03 0.00000000E+00 8.15988717E-04 1.68838464E-03-1.60776319E-03
 4  9-1.06820494E-03-6.52814474E-04 0.00000000E+00 0.00000000E+00 3.81380367E-05
 4 10-7.04184378E-01-1.85606760E-02 0.00000000E+00-5.64891492E-05-6.00373277E-04
 4 11 6.88575192E-03 0.00000000E+00 8.15988717E-04-1.68838464E-03 1.60776319E-03
 4 12 1.06820494E-03 6.52814474E-04 0.00000000E+00 0.00000000E+00 3.81380367E-05
 4 13 0.00000000E+00 0.00000000E+00 0.00000000E+00-2.64704203E-04 0.00000000E+00
 4 14 0.00000000E+00 0.00000000E+00 3.00433728E-03 0.00000000E+00 0.00000000E+00
 4 15 0.00000000E+00 0.00000000E+00 0.00000000E+00 0.00000000E+00-1.11222045E-04
 4 16 0.00000000E+00 0.00000000E+00-9.24199221E-05 1.34501405E-03 9.24199221E-05
 4 17-1.34501405E-03 1.56631538E-04-2.20548654E-04-1.56631538E-04 2.20548654E-04
 5  1 5.07721818E-05 1.45363083E-04 0.00000000E+00-5.91203596E-06-1.22940026E-05
 5  2-1.34460082E-03 0.00000000E+00 2.58057297E-04 2.94486191E-04 6.80667391E-05
 5  3 1.62045871E-04 2.10069747E-04 0.00000000E+00 0.00000000E+00 1.79398252E-05
 5  4 5.07721818E-05 1.45363083E-04 0.00000000E+00 5.91203596E-06-1.22940026E-05
 5  5-1.34460082E-03 0.00000000E+00-2.58057297E-04 2.94486191E-04 6.80667391E-05
 5  6 1.62045871E-04 2.10069747E-04 0.00000000E+00 0.00000000E+00-1.79398252E-05
 5  7-4.58068303E-03-1.90265917E-04 0.00000000E+00 1.57868321E-04 7.05209264E-05
 5  8 5.14378799E-03 0.00000000E+00-2.25487551E-03-1.15764525E-04-1.07683550E-04
 5  9-4.30441197E-04-3.60375752E-04 0.00000000E+00 0.00000000E+00-1.64189021E-04
 5 10-4.58068303E-03-1.90265917E-04 0.00000000E+00-1.57868321E-04 7.05209264E-05
 5 11 5.14378799E-03 0.00000000E+00 2.25487551E-03-1.15764525E-04-1.07683550E-04
 5 12-4.30441197E-04-3.60375752E-04 0.00000000E+00 0.00000000E+00 1.64189021E-04
 5 13 9.95572478E-01 2.81704531E-02 0.00000000E+00 0.00000000E+00 4.81856126E-04
 5 14-1.39892264E-02 0.00000000E+00 0.00000000E+00-2.90143146E-03-2.32824197E-03
 5 15-1.70384680E-03-1.92152041E-03 0.00000000E+00 0.00000000E+00 0.00000000E+00
 5 16-2.38740003E-04 1.18926048E-03-2.95992520E-05 2.43425990E-04-2.95992520E-05
 5 17 2.43425990E-04 4.71292356E-05 7.02880419E-05 4.71292356E-05 7.02880419E-05
 6  1-1.36811970E-01 2.99643455E-01 0.00000000E+00-3.27727874E-02-6.37012383E-02
 6  2 3.05696018E-01 0.00000000E+00-2.72055670E-02-3.60913206E-02-3.70029352E-03
 6  3 4.44495572E-03 1.01954230E-02 0.00000000E+00 0.00000000E+00 1.14684555E-03
 6  4-1.36811970E-01 2.99643455E-01 0.00000000E+00 3.27727874E-02-6.37012383E-02
 6  5 3.05696018E-01 0.00000000E+00 2.72055670E-02-3.60913206E-02-3.70029352E-03
 6  6 4.44495572E-03 1.01954230E-02 0.00000000E+00 0.00000000E+00-1.14684555E-03
 6  7-6.74835896E-02 1.29789177E-01 0.00000000E+00-1.57873140E-02 8.67036241E-02
 6  8 2.20489711E-02 0.00000000E+00 1.87656710E-02-1.33398360E-02-9.65652852E-03
 6  9-5.03418362E-03 1.85171341E-02 0.00000000E+00 0.00000000E+00-1.35422172E-03
 6 10-6.74835896E-02 1.29789177E-01 0.00000000E+00 1.57873140E-02 8.67036241E-02
 6 11 2.20489711E-02 0.00000000E+00-1.87656710E-02-1.33398360E-02-9.65652852E-03
 6 12-5.03418362E-03 1.85171341E-02 0.00000000E+00 0.00000000E+00 1.35422172E-03
 6 13-2.88624436E-02 5.05326890E-02 0.00000000E+00 0.00000000E+00 3.13845037E-02
 6 14 5.75874990E-02 0.00000000E+00 0.00000000E+00 3.58300910E-02-2.89881560E-03
 6 15 4.38900285E-03 3.68109426E-03 0.00000000E+00 0.00000000E+00 0.00000000E+00
 6 16 7.20700193E-03 9.66069889E-03 1.81650967E-02-8.25509563E-03 1.81650967E-02
 6 17-8.25509563E-03 3.41651477E-02-1.48109243E-03 3.41651477E-02-1.48109243E-03
 7  1-1.44692981E-01 3.18297467E-01 0.00000000E+00-1.11220146E-02-7.20863542E-02
 7  2 3.32024433E-01 0.00000000E+00-1.80547934E-02-3.42496530E-02-3.34251607E-03
 7  3 2.82956629E-03 1.11765118E-02 0.00000000E+00 0.00000000E+00-6.32907526E-05
 7  4 1.44692981E-01-3.18297467E-01 0.00000000E+00-1.11220146E-02 7.20863542E-02
 7  5-3.32024433E-01 0.00000000E+00-1.80547934E-02 3.42496530E-02 3.34251607E-03
 7  6-2.82956629E-03-1.11765118E-02 0.00000000E+00 0.00000000E+00-6.32907526E-05
 7  7-6.66995320E-02 1.28626826E-01 0.00000000E+00 2.64248248E-03 1.00162735E-01
 7  8 5.16554853E-02 0.00000000E+00 8.21920946E-03-1.23223106E-02-9.84090957E-03
 7  9-8.08523527E-03 2.11393246E-02 0.00000000E+00 0.00000000E+00-9.23118189E-04
 7 10 6.66995320E-02-1.28626826E-01 0.00000000E+00 2.64248248E-03-1.00162735E-01
 7 11-5.16554853E-02 0.00000000E+00 8.21920946E-03 1.23223106E-02 9.84090957E-03
 7 12 8.08523527E-03-2.11393246E-02 0.00000000E+00 0.00000000E+00-9.23118189E-04
 7 13 0.00000000E+00 0.00000000E+00 0.00000000E+00 3.14265528E-02 0.00000000E+00
 7 14 0.00000000E+00 0.00000000E+00-6.62494722E-03 0.00000000E+00 0.00000000E+00
 7 15 0.00000000E+00 0.00000000E+00 0.00000000E+00 0.00000000E+00 6.75114258E-03
 7 16 0.00000000E+00 0.00000000E+00 2.12402002E-02-5.91948316E-03-2.12402002E-02
 7 17 5.91948316E-03 2.37948687E-02-5.21198482E-02-2.37948687E-02 5.21198482E-02
 8  1 5.32838145E-02-1.21198718E-01 0.00000000E+00 2.67638126E-03-4.21357313E-02
 8  2-1.42124261E-01 0.00000000E+00 5.66115209E-03-2.06913060E-02-1.04920444E-03
 8  3-4.41856279E-03 3.75662790E-03 0.00000000E+00 0.00000000E+00 3.20065483E-03
 8  4 5.32838145E-02-1.21198718E-01 0.00000000E+00-2.67638126E-03-4.21357313E-02
 8  5-1.42124261E-01 0.00000000E+00-5.66115209E-03-2.06913060E-02-1.04920444E-03
 8  6-4.41856279E-03 3.75662790E-03 0.00000000E+00 0.00000000E+00-3.20065483E-03
 8  7-8.70691581E-02 1.81053668E-01 0.00000000E+00-9.42736678E-02-1.10434682E-01
 8  8 1.20483149E-01 0.00000000E+00-1.40658095E-02-2.44018410E-02-7.28354375E-03
 8  9 1.67143889E-02-6.83696036E-03 0.00000000E+00 0.00000000E+00 7.53732224E-03
 8 10-8.70691581E-02 1.81053668E-01 0.00000000E+00 9.42736678E-02-1.10434682E-01
 8 11 1.20483149E-01 0.00000000E+00 1.40658095E-02-2.44018410E-02-7.28354375E-03
 8 12 1.67143889E-02-6.83696036E-03 0.00000000E+00 0.00000000E+00-7.53732224E-03
 8 13-1.64325794E-01 3.08207012E-01 0.00000000E+00 0.00000000E+00 5.66170713E-02
 8 14 2.38750925E-01 0.00000000E+00 0.00000000E+00 6.23446471E-03-1.21010073E-02
 8 15 1.30950855E-02 9.27972696E-03 0.00000000E+00 0.00000000E+00 0.00000000E+00
 8 16 8.63646819E-02 1.64994710E-02 4.73894500E-02 8.13697751E-03 4.73894500E-02
 8 17 8.13697751E-03-1.83740273E-02-5.05537670E-03-1.83740273E-02-5.05537670E-03
 9  1 5.63770134E-02-1.28446054E-01 0.00000000E+00 2.11231534E-02-9.54210289E-02
 9  2-1.72168089E-01 0.00000000E+00 1.74538841E-02-6.09681036E-02-8.12615035E-04
 9  3-6.08158077E-03 9.19989543E-03 0.00000000E+00 0.00000000E+00 2.39338573E-03
 9  4-5.63770134E-02 1.28446054E-01 0.00000000E+00 2.11231534E-02 9.54210289E-02
 9  5 1.72168089E-01 0.00000000E+00 1.74538841E-02 6.09681036E-02 8.12615035E-04
 9  6 6.08158077E-03-9.19989543E-03 0.00000000E+00 0.00000000E+00 2.39338573E-03
 9  7-1.22764723E-01 2.61143842E-01 0.00000000E+00 2.08495876E-02-1.16778911E-01
 9  8 2.24424123E-01 0.00000000E+00 1.55177133E-02-6.77165012E-02-1.01138335E-02
 9  9 1.59607095E-02-2.62084197E-03 0.00000000E+00 0.00000000E+00-1.92339838E-03
 9 10 1.22764723E-01-2.61143842E-01 0.00000000E+00 2.08495876E-02 1.16778911E-01
 9 11-2.24424123E-01 0.00000000E+00 1.55177133E-02 6.77165012E-02 1.01138335E-02
 9 12-1.59607095E-02 2.62084197E-03 0.00000000E+00 0.00000000E+00-1.92339838E-03
 9 13 0.00000000E+00 0.00000000E+00 0.00000000E+00 2.22275951E-01 0.00000000E+00
 9 14 0.00000000E+00 0.00000000E+00 1.92154955E-02 0.00000000E+00 0.00000000E+00
 9 15 0.00000000E+00 0.00000000E+00 0.00000000E+00 0.00000000E+00 1.56014580E-02
 9 16 0.00000000E+00 0.00000000E+00 1.30429041E-01 3.79365216E-02-1.30429041E-01
 9 17-3.79365216E-02-1.71292045E-02 5.72782081E-02 1.71292045E-02-5.72782081E-02
10  1 1.53737242E-02-3.00290061E-02 0.00000000E+00 1.84581655E-01-1.53192769E-01
10  2-6.37149202E-02 0.00000000E+00 1.11563977E-01-8.21830578E-02 2.87730503E-03
10  3-1.20064465E-02 1.57249501E-02 0.00000000E+00 0.00000000E+00-5.60031077E-03
10  4 1.53737242E-02-3.00290061E-02 0.00000000E+00-1.84581655E-01-1.53192769E-01
10  5-6.37149202E-02 0.00000000E+00-1.11563977E-01-8.21830578E-02 2.87730503E-03
10  6-1.20064465E-02 1.57249501E-02 0.00000000E+00 0.00000000E+00 5.60031077E-03
10  7-6.59932386E-02 1.41284974E-01 0.00000000E+00 2.05417057E-01 5.30210498E-02
10  8 1.26176227E-01 0.00000000E+00 6.61229168E-02-1.76464401E-02-7.03045758E-03
10  9 2.75956248E-03 7.83817433E-03 0.00000000E+00 0.00000000E+00-7.05052168E-03
10 10-6.59932386E-02 1.41284974E-01 0.00000000E+00-2.05417057E-01 5.30210498E-02
10 11 1.26176227E-01 0.00000000E+00-6.61229168E-02-1.76464401E-02-7.03045758E-03
10 12 2.75956248E-03 7.83817433E-03 0.00000000E+00 0.00000000E+00 7.05052168E-03
10 13 7.17687029E-02-1.34228343E-01 0.00000000E+00 0.00000000E+00-2.44076712E-03
10 14-1.55557123E-01 0.00000000E+00 0.00000000E+00 2.19859842E-02 5.43254186E-03
10 15 1.94102777E-03-9.01064158E-03 0.00000000E+00 0.00000000E+00 0.00000000E+00
10 16-5.79529040E-02-1.53033843E-02 1.32783718E-01 5.43386514E-02 1.32783718E-01
10 17 5.43386514E-02-6.14890167E-02-2.33250657E-02-6.14890167E-02-2.33250657E-02
11  1 3.83161181E-02-9.57276830E-02 0.00000000E+00-9.38379518E-02-1.95607141E-01
11  2-1.20491902E-01 0.00000000E+00-6.61181896E-02-1.19016914E-01-7.15143584E-03
11  3-4.45975753E-03 9.46232067E-03 0.00000000E+00 0.00000000E+00 1.22781446E-02
11  4 3.83161181E-02-9.57276830E-02 0.00000000E+00 9.38379518E-02-1.95607141E-01
11  5-1.20491902E-01 0.00000000E+00 6.61181896E-02-1.19016914E-01-7.15143584E-03
11  6-4.45975753E-03 9.46232067E-03 0.00000000E+00 0.00000000E+00-1.22781446E-02
11  7-2.85058699E-02 6.48362163E-02 0.00000000E+00-1.52094868E-01 1.29601775E-01
11  8 1.14432455E-02 0.00000000E+00-5.01378455E-02 2.82308271E-02-3.58459929E-03
11  9-3.01511645E-03 2.32768770E-03 0.00000000E+00 0.00000000E+00-2.11824388E-04
11 10-2.85058699E-02 6.48362163E-02 0.00000000E+00 1.52094868E-01 1.29601775E-01
11 11 1.14432455E-02 0.00000000E+00 5.01378455E-02 2.82308271E-02-3.58459929E-03
11 12-3.01511645E-03 2.32768770E-03 0.00000000E+00 0.00000000E+00 2.11824388E-04
11 13 4.02931487E-02-7.77461900E-02 0.00000000E+00 0.00000000E+00 2.84161817E-01
11 14-9.62530132E-02 0.00000000E+00 0.00000000E+00 1.46720193E-01 1.81132638E-03
11 15 3.66530886E-03-1.44220620E-02 0.00000000E+00 0.00000000E+00 0.00000000E+00
11 16-1.94022589E-01-1.02601214E-01-7.34788681E-02-4.65107366E-02-7.34788681E-02
11 17-4.65107366E-02-7.01762618E-03-2.50618498E-02-7.01762618E-03-2.50618498E-02
12  1-2.25727346E-02 4.29800709E-02 0.00000000E+00-1.83950628E-01 1.58917948E-01
12  2 1.16210458E-01 0.00000000E+00-1.26179114E-01 9.60968272E-02-3.11260837E-03
12  3 8.37052256E-03-1.33905541E-02 0.00000000E+00 0.00000000E+00 7.09422620E-03
12  4 2.25727346E-02-4.29800709E-02 0.00000000E+00-1.83950628E-01-1.58917948E-01
12  5-1.16210458E-01 0.00000000E+00-1.26179114E-01-9.60968272E-02 3.11260837E-03
12  6-8.37052256E-03 1.33905541E-02 0.00000000E+00 0.00000000E+00 7.09422620E-03
12  7-7.52302019E-03 1.94681027E-02 0.00000000E+00-2.73435390E-01-1.60666788E-01
12  8 1.37955899E-03 0.00000000E+00-8.76457146E-02-2.99214925E-02 2.28478980E-03
12  9-2.01794319E-03-6.08989215E-03 0.00000000E+00 0.00000000E+00 9.93840690E-03
12 10 7.52302019E-03-1.94681027E-02 0.00000000E+00-2.73435390E-01 1.60666788E-01
12 11-1.37955899E-03 0.00000000E+00-8.76457146E-02 2.99214925E-02-2.28478980E-03
12 12 2.01794319E-03 6.08989215E-03 0.00000000E+00 0.00000000E+00 9.93840690E-03
12 13 0.00000000E+00 0.00000000E+00 0.00000000E+00 3.07233750E-01 0.00000000E+00
12 14 0.00000000E+00 0.00000000E+00 1.32417401E-01 0.00000000E+00 0.00000000E+00
12 15 0.00000000E+00 0.00000000E+00 0.00000000E+00 0.00000000E+00 2.01820357E-02
12 16 0.00000000E+00 0.00000000E+00-9.34126605E-02-6.64304916E-02 9.34126605E-02
12 17 6.64304916E-02 3.15125336E-02-3.11124757E-02-3.15125336E-02 3.11124757E-02
13  1-3.77464245E-02 8.89422202E-02 0.00000000E+00 1.02311715E-01 3.09967475E-01
13  2 1.45127159E-01 0.00000000E+00 6.84380858E-02 1.88477180E-01 5.94842010E-03
13  3 5.98563597E-03-1.69747303E-02 0.00000000E+00 0.00000000E+00-1.37372397E-02
13  4 3.77464245E-02-8.89422202E-02 0.00000000E+00 1.02311715E-01-3.09967475E-01
13  5-1.45127159E-01 0.00000000E+00 6.84380858E-02-1.88477180E-01-5.94842010E-03
13  6-5.98563597E-03 1.69747303E-02 0.00000000E+00 0.00000000E+00-1.37372397E-02
13  7 2.20415574E-02-5.35335281E-02 0.00000000E+00 1.64475250E-01-2.19927701E-01
13  8-2.15757769E-02 0.00000000E+00 8.68570843E-02-6.15362862E-02 3.94199540E-03
13  9 1.85782441E-02-1.76893950E-02 0.00000000E+00 0.00000000E+00-5.66447741E-03
13 10-2.20415574E-02 5.35335281E-02 0.00000000E+00 1.64475250E-01 2.19927701E-01
13 11 2.15757769E-02 0.00000000E+00 8.68570843E-02 6.15362862E-02-3.94199540E-03
13 12-1.85782441E-02 1.76893950E-02 0.00000000E+00 0.00000000E+00-5.66447741E-03
13 13 0.00000000E+00 0.00000000E+00 0.00000000E+00-2.35664702E-02 0.00000000E+00
13 14 0.00000000E+00 0.00000000E+00 3.82868883E-03 0.00000000E+00 0.00000000E+00
13 15 0.00000000E+00 0.00000000E+00 0.00000000E+00 0.00000000E+00-1.01604081E-02
13 16 0.00000000E+00 0.00000000E+00 1.23094064E-01 8.46001665E-02-1.23094064E-01
13 17-8.46001665E-02 8.82622428E-03 9.65558938E-02-8.82622428E-03-9.65558938E-02
14  1-1.63869260E-02 4.52772049E-02 0.00000000E+00 2.11277692E-01-1.49497774E-01
14  2 2.94758214E-02 0.00000000E+00 1.53421777E-01-8.11609037E-02 3.58373252E-03
14  3-1.12930343E-02 1.23180703E-02 0.00000000E+00 0.00000000E+00-1.29718468E-03
14  4-1.63869260E-02 4.52772049E-02 0.00000000E+00-2.11277692E-01-1.49497774E-01
14  5 2.94758214E-02 0.00000000E+00-1.53421777E-01-8.11609037E-02 3.58373252E-03
14  6-1.12930343E-02 1.23180703E-02 0.00000000E+00 0.00000000E+00 1.29718468E-03
14  7 3.29779667E-02-6.66001822E-02 0.00000000E+00-1.09355853E-01 1.83777570E-01
14  8-8.68756040E-02 0.00000000E+00-5.97053158E-02 8.43210062E-02 9.76154355E-04
14  9-2.10464341E-02 1.89927947E-02 0.00000000E+00 0.00000000E+00 2.32292011E-02
14 10 3.29779667E-02-6.66001822E-02 0.00000000E+00 1.09355853E-01 1.83777570E-01
14 11-8.68756040E-02 0.00000000E+00 5.97053158E-02 8.43210062E-02 9.76154355E-04
14 12-2.10464341E-02 1.89927947E-02 0.00000000E+00 0.00000000E+00-2.32292011E-02
14 13-5.18745672E-02 1.01280856E-01 0.00000000E+00 0.00000000E+00-1.44254754E-01
14 14 1.45042307E-01 0.00000000E+00 0.00000000E+00-1.11544826E-01-2.65822328E-03
14 15-1.32455126E-02 2.17973097E-02 0.00000000E+00 0.00000000E+00 0.00000000E+00
14 16 1.45745901E-01 7.92753272E-02-1.54523722E-01-1.01483856E-01-1.54523722E-01
14 17-1.01483856E-01-6.53129896E-02-5.00245516E-02-6.53129896E-02-5.00245516E-02
15  1 0.00000000E+00 0.00000000E+00 3.27625933E-01 0.00000000E+00 0.00000000E+00
15  2 0.00000000E+00 2.46125792E-01 0.00000000E+00 0.00000000E+00 0.00000000E+00
15  3 0.00000000E+00 0.00000000E+00-1.00089425E-02-2.04820090E-02 0.00000000E+00
15  4 0.00000000E+00 0.00000000E+00 3.27625933E-01 0.00000000E+00 0.00000000E+00
15  5 0.00000000E+00 2.46125792E-01 0.00000000E+00 0.00000000E+00 0.00000000E+00
15  6 0.00000000E+00 0.00000000E+00 1.00089425E-02-2.04820090E-02 0.00000000E+00
15  7 0.00000000E+00 0.00000000E+00 2.01012700E-01 0.00000000E+00 0.00000000E+00
15  8 0.00000000E+00 1.22585804E-01 0.00000000E+00 0.00000000E+00 0.00000000E+00
15  9 0.00000000E+00 0.00000000E+00-8.58866907E-03 1.35568268E-02 0.00000000E+00
15 10 0.00000000E+00 0.00000000E+00 2.01012700E-01 0.00000000E+00 0.00000000E+00
15 11 0.00000000E+00 1.22585804E-01 0.00000000E+00 0.00000000E+00 0.00000000E+00
15 12 0.00000000E+00 0.00000000E+00 8.58866907E-03 1.35568268E-02 0.00000000E+00
15 13 0.00000000E+00 0.00000000E+00 1.66446044E-01 0.00000000E+00 0.00000000E+00
15 14 0.00000000E+00 1.02361129E-01 0.00000000E+00 0.00000000E+00 0.00000000E+00
15 15 0.00000000E+00 0.00000000E+00 0.00000000E+00 1.09475906E-02 0.00000000E+00
15 16 0.00000000E+00 0.00000000E+00 0.00000000E+00 0.00000000E+00 0.00000000E+00
15 17 0.00000000E+00 0.00000000E+00 0.00000000E+00 0.00000000E+00 0.00000000E+00
16  1-3.10573440E-02 8.12888056E-02 0.00000000E+00 2.59090504E-01 2.04806338E-01
16  2 1.03563061E-01 0.00000000E+00 2.07786585E-01 1.44219983E-01 9.86711839E-03
16  3-4.40386303E-03-4.04036931E-03 0.00000000E+00 0.00000000E+00-1.13194155E-02
16  4-3.10573440E-02 8.12888056E-02 0.00000000E+00-2.59090504E-01 2.04806338E-01
16  5 1.03563061E-01 0.00000000E+00-2.07786585E-01 1.44219983E-01 9.86711839E-03
16  6-4.40386303E-03-4.04036931E-03 0.00000000E+00 0.00000000E+00 1.13194155E-02
16  7 6.42942648E-04 2.74090150E-03 0.00000000E+00-1.18157638E-01-1.34147504E-01
16  8-3.45090237E-03 0.00000000E+00-1.52722154E-03-2.58248895E-02 3.51451141E-03
16  9 1.14163572E-02-1.50253519E-02 0.00000000E+00 0.00000000E+00 1.85498482E-02
16 10 6.42942648E-04 2.74090150E-03 0.00000000E+00 1.18157638E-01-1.34147504E-01
16 11-3.45090237E-03 0.00000000E+00 1.52722154E-03-2.58248895E-02 3.51451141E-03
16 12 1.14163572E-02-1.50253519E-02 0.00000000E+00 0.00000000E+00-1.85498482E-02
16 13-2.48996150E-02 5.25132684E-02 0.00000000E+00 0.00000000E+00 2.91479675E-01
16 14 1.12018041E-01 0.00000000E+00 0.00000000E+00 1.51157695E-01 2.04693647E-04
16 15 1.37816147E-02-2.02983862E-02 0.00000000E+00 0.00000000E+00 0.00000000E+00
16 16-1.76839979E-01-1.55978509E-01-3.75867543E-02-4.61538963E-02-3.75867543E-02
16 17-4.61538963E-02-4.10533618E-02-1.31121785E-03-4.10533618E-02-1.31121785E-03
17  1 0.00000000E+00 0.00000000E+00 3.93101506E-01 0.00000000E+00 0.00000000E+00
17  2 0.00000000E+00 2.95423728E-01 0.00000000E+00 0.00000000E+00 0.00000000E+00
17  3 0.00000000E+00 0.00000000E+00-7.21183192E-03-2.35640064E-02 0.00000000E+00
17  4 0.00000000E+00 0.00000000E+00-3.93101506E-01 0.00000000E+00 0.00000000E+00
17  5 0.00000000E+00-2.95423728E-01 0.00000000E+00 0.00000000E+00 0.00000000E+00
17  6 0.00000000E+00 0.00000000E+00-7.21183192E-03 2.35640064E-02 0.00000000E+00
17  7 0.00000000E+00 0.00000000E+00 1.78757725E-01 0.00000000E+00 0.00000000E+00
17  8 0.00000000E+00 1.16211526E-01 0.00000000E+00 0.00000000E+00 0.00000000E+00
17  9 0.00000000E+00 0.00000000E+00-9.03617409E-05 2.12634003E-02 0.00000000E+00
17 10 0.00000000E+00 0.00000000E+00-1.78757725E-01 0.00000000E+00 0.00000000E+00
17 11 0.00000000E+00-1.16211526E-01 0.00000000E+00 0.00000000E+00 0.00000000E+00
17 12 0.00000000E+00 0.00000000E+00-9.03617409E-05-2.12634003E-02 0.00000000E+00
17 13 0.00000000E+00 0.00000000E+00 0.00000000E+00 0.00000000E+00 0.00000000E+00
17 14 0.00000000E+00 0.00000000E+00 0.00000000E+00 0.00000000E+00 0.00000000E+00
17 15 0.00000000E+00 0.00000000E+00 9.24165730E-03 0.00000000E+00 0.00000000E+00
17 16 0.00000000E+00 0.00000000E+00 0.00000000E+00 0.00000000E+00 0.00000000E+00
17 17 0.00000000E+00 0.00000000E+00 0.00000000E+00 0.00000000E+00 0.00000000E+00
18  1-7.98092413E-04 1.88166080E-02 0.00000000E+00 4.17925257E-01 2.04827696E-04
18  2-7.19626027E-02 0.00000000E+00 3.51007555E-01 1.23359587E-03 9.52857436E-03
18  3-1.13638644E-02 7.84832958E-03 0.00000000E+00 0.00000000E+00-9.50727304E-03
18  4 7.98092413E-04-1.88166080E-02 0.00000000E+00 4.17925257E-01-2.04827696E-04
18  5 7.19626027E-02 0.00000000E+00 3.51007555E-01-1.23359587E-03-9.52857436E-03
18  6 1.13638644E-02-7.84832958E-03 0.00000000E+00 0.00000000E+00-9.50727304E-03
18  7-4.01999125E-03 1.21753694E-02 0.00000000E+00-1.48566252E-01-9.79962584E-03
18  8-2.17201389E-02 0.00000000E+00-5.52116789E-02 5.86006658E-02 5.90707851E-04
18  9-8.04445618E-03 3.63014144E-03 0.00000000E+00 0.00000000E+00 3.34753608E-02
18 10 4.01999125E-03-1.21753694E-02 0.00000000E+00-1.48566252E-01 9.79962584E-03
18 11 2.17201389E-02 0.00000000E+00-5.52116789E-02-5.86006658E-02-5.90707851E-04
18 12 8.04445618E-03-3.63014144E-03 0.00000000E+00 0.00000000E+00 3.34753608E-02
18 13 0.00000000E+00 0.00000000E+00 0.00000000E+00 1.93815639E-01 0.00000000E+00
18 14 0.00000000E+00 0.00000000E+00 1.59195616E-01 0.00000000E+00 0.00000000E+00
18 15 0.00000000E+00 0.00000000E+00 0.00000000E+00 0.00000000E+00 1.09898695E-02
18 16 0.00000000E+00 0.00000000E+00-1.19625262E-01-1.16342019E-01 1.19625262E-01
18 17 1.16342019E-01-4.49728236E-02 1.48327998E-01 4.49728236E-02-1.48327998E-01
19  1 0.00000000E+00 0.00000000E+00-2.57430706E-01 0.00000000E+00 0.00000000E+00
19  2 0.00000000E+00-2.42847601E-01 0.00000000E+00 0.00000000E+00 0.00000000E+00
19  3 0.00000000E+00 0.00000000E+00 7.04172629E-03 7.32179842E-03 0.00000000E+00
19  4 0.00000000E+00 0.00000000E+00-2.57430706E-01 0.00000000E+00 0.00000000E+00
19  5 0.00000000E+00-2.42847601E-01 0.00000000E+00 0.00000000E+00 0.00000000E+00
19  6 0.00000000E+00 0.00000000E+00-7.04172629E-03 7.32179842E-03 0.00000000E+00
19  7 0.00000000E+00 0.00000000E+00 1.42323491E-01 0.00000000E+00 0.00000000E+00
19  8 0.00000000E+00 8.48166457E-02 0.00000000E+00 0.00000000E+00 0.00000000E+00
19  9 0.00000000E+00 0.00000000E+00-1.92583638E-02-2.65073919E-02 0.00000000E+00
19 10 0.00000000E+00 0.00000000E+00 1.42323491E-01 0.00000000E+00 0.00000000E+00
19 11 0.00000000E+00 8.48166457E-02 0.00000000E+00 0.00000000E+00 0.00000000E+00
19 12 0.00000000E+00 0.00000000E+00 1.92583638E-02-2.65073919E-02 0.00000000E+00
19 13 0.00000000E+00 0.00000000E+00 4.01773771E-01 0.00000000E+00 0.00000000E+00
19 14 0.00000000E+00 3.84607969E-01 0.00000000E+00 0.00000000E+00 0.00000000E+00
19 15 0.00000000E+00 0.00000000E+00 0.00000000E+00 1.23798491E-02 0.00000000E+00
19 16 0.00000000E+00 0.00000000E+00 0.00000000E+00 0.00000000E+00 0.00000000E+00
19 17 0.00000000E+00 0.00000000E+00 0.00000000E+00 0.00000000E+00 0.00000000E+00
20  1 0.00000000E+00 0.00000000E+00-2.29925351E-01 0.00000000E+00 0.00000000E+00
20  2 0.00000000E+00-2.92220733E-01 0.00000000E+00 0.00000000E+00 0.00000000E+00
20  3 0.00000000E+00 0.00000000E+00 4.71241075E-03-3.66974950E-03 0.00000000E+00
20  4 0.00000000E+00 0.00000000E+00 2.29925351E-01 0.00000000E+00 0.00000000E+00
20  5 0.00000000E+00 2.92220733E-01 0.00000000E+00 0.00000000E+00 0.00000000E+00
20  6 0.00000000E+00 0.00000000E+00 4.71241075E-03 3.66974950E-03 0.00000000E+00
20  7 0.00000000E+00 0.00000000E+00 3.50237179E-01 0.00000000E+00 0.00000000E+00
20  8 0.00000000E+00 4.80039798E-01 0.00000000E+00 0.00000000E+00 0.00000000E+00
20  9 0.00000000E+00 0.00000000E+00 5.54734716E-04-2.03478670E-02 0.00000000E+00
20 10 0.00000000E+00 0.00000000E+00-3.50237179E-01 0.00000000E+00 0.00000000E+00
20 11 0.00000000E+00-4.80039798E-01 0.00000000E+00 0.00000000E+00 0.00000000E+00
20 12 0.00000000E+00 0.00000000E+00 5.54734716E-04 2.03478670E-02 0.00000000E+00
20 13 0.00000000E+00 0.00000000E+00 0.00000000E+00 0.00000000E+00 0.00000000E+00
20 14 0.00000000E+00 0.00000000E+00 0.00000000E+00 0.00000000E+00 0.00000000E+00