! EXAMCOMP1.
! LiH   G3(MP2,CCSD(T)) heats of formation using GAMESS Composite code input.
!
!   ------------------------------------------------------------------
!     RESTART INFO FOR COMPOSITE METHOD CALCULATIONS
!     ADDING CETOT(X) WILL STOP CALCULATION X
!     IF RERUNNING SAVE THE ORIGINAL DATA AT THIS POINT IF NEEDED
!   ------------------------------------------------------------------
! CETOT(1)=     -7.98086833
! CETOT(2)=     -7.99651077
! CETOT(3)=     -8.00292240
! CETOT(4)=     -8.01176269
! CETOT(5)=     -7.99595874
! CETOT(6)=     -7.98086649
!
!   -----------------------------------------
!   COMPOSITE METHOD ENERGY VALUES (HARTREES)
!   ------------------------------------------------------------------
!   STEP#   MPLEVL   CCTYP+CCMP2   CITYP   DFTYPE
!   ------------------------------------------------------------------
!    1  [HF:      -7.980868]  --------------------------------------
!    2  --- [MP2:      -7.996511]  -----------------------------------
!    3  ------------ [CCSD(T) :      -8.002922  ,     -7.980866] -----
!    4  --- [MP2:      -8.011763]  -----------------------------------
!    5  --- [MP2:      -7.995959]  -----------------------------------
!   ------------------------------------------------------------------
!   THERMOCHEMICAL DATA (HARTREES)(TEMPERATURE = 298.15K)
!   ------------------------------------------------------------------
!   THERMAL ENERGY    =   0.005594
!   THERMAL ENTHALPY  =   0.006538
!   FREE ENERGY       =  -0.012891
!   ZERO POINT ENERGY =   0.003227
!   ------------------------------------------------------------------
!   ENERGY CORRECTION  1    =    -0.00696365
!   ENERGY CORRECTION  2    =    -0.01580394
!   ------------------------------------------------------------------
!   COMPOSITE ENERGY @ 0K   =      -8.025015
!   COMPOSITE ENERGY @ 298K =      -8.022648
!   COMPOSITE ENTHALPY      =      -8.021704
!   COMPOSITE FREE ENERGY   =      -8.041132
!   ------------------------------------------------------------------
!
!   ----------------------------------------------------------------
!         HEATS OF FORMATION   (0K):      33.31 KCAL/MOL
!         HEATS OF FORMATION (298K):      33.27 KCAL/MOL
!   ----------------------------------------------------------------
!         HEATS OF FORMATIONS BASED ON NIST DATABASE FROM
!         COMPUTATIONAL CHEMISTRY COMPARISON AND BENCHMARK DATABASE
!   ----------------------------------------------------------------
 $CONTRL SCFTYP=ROHF MULT=1 RUNTYP=COMP  LOCAL=NONE
  UNITS=ANGS $END
 $SYSTEM TIMLIM=9999999 MWORDS=600 memddi=50 $END
 $MP2 OSPT=ZAPT $END
  CXETH=0.00559425, CXHTH=0.00653842, CXGTH=-0.01289054,
  CCXZPE=0.00322686, CZPSCL=0.89290000
 $COMP
  iop=2, ihs=1, iene=3, icalc=2, ienref=5,
  cenhlc=-0.009170, czpscl=0.8929, cheats=g3mp2,
  icmplv(2)=2,
  icmplv(4)=2,
  icmplv(5)=2,
  ccctyp(3)=ccsd(t),
  icisph(4)=1,
  cgbass(1)=n31,n31,n31,g3l,n31,
  icngss(1)=6,6,6,0,6,
  icndfc(1)=1,1,1,0,1,
  icnacr(2)=0,
  icnbcr(2)=0,
  icnder(2)=1,
  icenca(1)=3,4,
  icencb(1)=5,5
 $END
 $GUESS  GUESS=HUCKEL $END
 $CONTRL COORD=UNIQUE $END
 $DATA
LIH
C1
Li  3.0 0.0000 	0.0000 	0.0000
H   1.0 0.0000 	0.0000 	1.5957
 $END
