! EXAMCOMP3.
! LiH   G3(MP2,CCSD(T)) heats of formation using GAMESS RUNTYP=G3MP2.
!
!   ----------------------------------------------------------------
!                  SUMMARY OF G3(MP2) CALCULATIONS
!   ----------------------------------------------------------------
!   MP2/6-31G(D)    =    -7.995959   CCSD(T)/6-31G(D) =    -8.002922
!   MP2/G3MP2LARGE  =    -8.011763   BASIS CONTRIBUT  =    -0.015804
!   ZPE(HF/6-31G(D))=     0.002881   ZPE SCALE FACTOR =     0.892900
!   HLC             =    -0.009170   FREE ENERGY      =    -0.012891
!   THERMAL ENERGY  =     0.005594   THERMAL ENTHALPY =     0.006538
!   ----------------------------------------------------------------
!   E(G3(MP2)) @ 0K =    -8.025015   E(G3(MP2)) @298K =    -8.022648
!   H(G3(MP2))      =    -8.021704   G(G3(MP2))       =    -8.041132
!   ----------------------------------------------------------------
!
!   ----------------------------------------------------------------
!         HEAT OF FORMATION   (0K):      33.31 KCAL/MOL
!         HEAT OF FORMATION (298K):      33.27 KCAL/MOL
!   ----------------------------------------------------------------
!         HEATS OF FORMATIONS BASED ON NIST DATABASE FROM
!         COMPUTATIONAL CHEMISTRY COMPARISON AND BENCHMARK DATABASE
!   ----------------------------------------------------------------
 $CONTRL SCFTYP=RHF MULT=1 RUNTYP=G3MP2  LOCAL=NONE
  UNITS=ANGS $END
 $SYSTEM TIMLIM=9999999 MWORDS=600 memddi=50 $END
 $GUESS  GUESS=HUCKEL $END
 $CONTRL COORD=UNIQUE $END
 $DATA
LIH
C1
Li  3.0 0.0000 	0.0000 	0.0000
H   1.0 0.0000 	0.0000 	1.5957
 $END
