!
! NEO-CI calculation on H2.
! H nuclei are treated high-spin with built in 2s2p basis set.
! NEO electronic and nuclear MOs from a previous NEO-HF 
! C2v calculation are read in. A NEO-FCI within a limited active 
! space, (2 e,4 orbs) and (2 nuc,8 orbs), is performed.
!
!NEO-FCI energies and CI coeficients of states 1 and 2:
!
! STATE=  1 ENERGY =        -1.0723293618
!
!  ALPHA   |  BETA    ||ALPHA |BETA  | COEFFICIENT
!----------|----------||------|------|------------
! 11000000 | 00000000 || 1000 | 1000 |  -0.9916580
! 11000000 | 00000000 || 0100 | 0100 |   0.0777031
! 11000000 | 00000000 || 0010 | 0010 |   0.0544747
!
! STATE=  2 ENERGY =        -1.0250422697
!
!  ALPHA   |  BETA    ||ALPHA |BETA  | COEFFICIENT
!----------|----------||------|------|------------
! 10001000 | 00000000 || 1000 | 1000 |   0.0570951
! 10000100 | 00000000 || 1000 | 1000 |   0.6988858
! 10000100 | 00000000 || 0100 | 0100 |  -0.0543364
! 01000010 | 00000000 || 1000 | 1000 |  -0.0570951
! 01000001 | 00000000 || 1000 | 1000 |  -0.6988857
! 01000001 | 00000000 || 0100 | 0100 |   0.0543364
!
 $CONTRL SCFTYP=NONE CITYP=ALDET  RUNTYP=ENERGY $END
 $SYSTEM TIMLIM=9999 MEMORY=25000000 $END
 $NEO NEOSCF=NONE NEOCI=FCI BASNUC=DZSPNB NUNIQN=1 IUNIQN(1)=1 
      NUMULT=3 SYMNUC=.T. $END
 $CIDET  NCORE=0 NACT=4 NELS=2 $END
 $NEODET NACT=8 NUCLEI=2 NSTATE=4 SZ=1.0 NFLGDM(1)=1,1,1,1 $END
 $BASIS  GBASIS=N31 NGAUSS=6 NPFUNC=1 $END
 $GUESS  GUESS=MOREAD NORB=10 $END
 $GESNMO GUESS=MOREAD NORB=16 $END
 $DATA
H2 NEO-FCI
CNV 2

 H           1.0    .3649993801    .0000000000    .0000000000
 $END
--- CLOSED SHELL ORBITALS --- GENERATED AT Sun Oct  1 03:30:08 2006
H2 NEO-HF/6-31G/DZSNB                                                           
E(RHF)=       -1.0480463797, E(NUC)=    0.0000000000,   16 ITERS
 $VEC   
 1  1 2.91080405E-01 3.00348017E-01 9.44831059E-03 0.00000000E+00 0.00000000E+00
 1  2 2.91080405E-01 3.00348017E-01-9.44831059E-03 0.00000000E+00 0.00000000E+00
 2  1 1.06959525E-01 1.74566100E+00-9.18079790E-03 0.00000000E+00 0.00000000E+00
 2  2-1.06959525E-01-1.74566100E+00-9.18079790E-03 0.00000000E+00 0.00000000E+00
 3  1 7.60456856E-01-6.66736420E-01 2.64912406E-02 0.00000000E+00 0.00000000E+00
 3  2 7.60456856E-01-6.66736420E-01-2.64912406E-02 0.00000000E+00 0.00000000E+00
 4  1-8.24662531E-01 1.40359019E+00 3.42672685E-01 0.00000000E+00 0.00000000E+00
 4  2 8.24662531E-01-1.40359019E+00 3.42672685E-01 0.00000000E+00 0.00000000E+00
 5  1 0.00000000E+00 0.00000000E+00 0.00000000E+00 0.00000000E+00 6.08330724E-01
 5  2 0.00000000E+00 0.00000000E+00 0.00000000E+00 0.00000000E+00 6.08330724E-01
 6  1 0.00000000E+00 0.00000000E+00 0.00000000E+00 6.08330724E-01 0.00000000E+00
 6  2 0.00000000E+00 0.00000000E+00 0.00000000E+00 6.08330724E-01 0.00000000E+00
 7  1-3.75664928E-01 1.83031366E-01 6.52096205E-01 0.00000000E+00 0.00000000E+00
 7  2-3.75664928E-01 1.83031366E-01-6.52096205E-01 0.00000000E+00 0.00000000E+00
 8  1 0.00000000E+00 0.00000000E+00 0.00000000E+00 0.00000000E+00 8.77807419E-01
 8  2 0.00000000E+00 0.00000000E+00 0.00000000E+00 0.00000000E+00-8.77807419E-01
 9  1 0.00000000E+00 0.00000000E+00 0.00000000E+00 8.77807419E-01 0.00000000E+00
 9  2 0.00000000E+00 0.00000000E+00 0.00000000E+00-8.77807419E-01 0.00000000E+00
10  1 1.55230553E+00 1.17456576E-01 1.59876647E+00 0.00000000E+00 0.00000000E+00
10  2-1.55230553E+00-1.17456576E-01 1.59876647E+00 0.00000000E+00 0.00000000E+00
 $END   
--- NUC-HF ORBITALS --- GENERATED AT Sun Oct  1 03:30:08 2006
H2 NEO-HF/6-31G/DZSNB                                                           
E(RHF)=       -1.0480463797, E(NUC)=    0.0000000000,   16 ITERS
 $VECPRO
 1  1 2.47134754E-01 4.49280622E-01-8.96475268E-02 0.00000000E+00 0.00000000E+00
 1  2-5.55578559E-02 0.00000000E+00 0.00000000E+00 2.47134754E-01 4.49280622E-01
 1  3 8.96475268E-02 0.00000000E+00 0.00000000E+00 5.55578559E-02 0.00000000E+00
 1  4 0.00000000E+00
 2  1 2.47134782E-01 4.49280593E-01-8.96474147E-02 0.00000000E+00 0.00000000E+00
 2  2-5.55579810E-02 0.00000000E+00 0.00000000E+00-2.47134782E-01-4.49280593E-01
 2  3-8.96474147E-02 0.00000000E+00 0.00000000E+00-5.55579810E-02 0.00000000E+00
 2  4 0.00000000E+00
 3  1-6.13020351E-01 7.02163406E-01-1.54086548E+00 0.00000000E+00 0.00000000E+00
 3  2 2.01242493E+00 0.00000000E+00 0.00000000E+00-6.13020351E-01 7.02163406E-01
 3  3 1.54086548E+00 0.00000000E+00 0.00000000E+00-2.01242493E+00 0.00000000E+00
 3  4 0.00000000E+00
 4  1-6.13033395E-01 7.02178143E-01-1.54085447E+00 0.00000000E+00 0.00000000E+00
 4  2 2.01242306E+00 0.00000000E+00 0.00000000E+00 6.13033395E-01-7.02178143E-01
 4  3-1.54085447E+00 0.00000000E+00 0.00000000E+00 2.01242306E+00 0.00000000E+00
 4  4 0.00000000E+00
 5  1 0.00000000E+00 0.00000000E+00 0.00000000E+00-1.58459253E+00 0.00000000E+00
 5  2 0.00000000E+00 2.07218986E+00 0.00000000E+00 0.00000000E+00 0.00000000E+00
 5  3 0.00000000E+00-1.58459253E+00 0.00000000E+00 0.00000000E+00 2.07218986E+00
 5  4 0.00000000E+00
 6  1 0.00000000E+00 0.00000000E+00 0.00000000E+00 0.00000000E+00-1.58459253E+00
 6  2 0.00000000E+00 0.00000000E+00 2.07218986E+00 0.00000000E+00 0.00000000E+00
 6  3 0.00000000E+00 0.00000000E+00-1.58459253E+00 0.00000000E+00 0.00000000E+00
 6  4 2.07218986E+00
 7  1 0.00000000E+00 0.00000000E+00 0.00000000E+00-1.58459221E+00 0.00000000E+00
 7  2 0.00000000E+00 2.07218984E+00 0.00000000E+00 0.00000000E+00 0.00000000E+00
 7  3 0.00000000E+00 1.58459221E+00 0.00000000E+00 0.00000000E+00-2.07218984E+00
 7  4 0.00000000E+00
 8  1 0.00000000E+00 0.00000000E+00 0.00000000E+00 0.00000000E+00-1.58459221E+00
 8  2 0.00000000E+00 0.00000000E+00 2.07218984E+00 0.00000000E+00 0.00000000E+00
 8  3 0.00000000E+00 0.00000000E+00 1.58459221E+00 0.00000000E+00 0.00000000E+00
 8  4-2.07218984E+00
 9  1 3.03953922E+00-3.01244532E+00-6.00059816E-01 0.00000000E+00 0.00000000E+00
 9  2 6.26855573E-01 0.00000000E+00 0.00000000E+00 3.03953922E+00-3.01244532E+00
 9  3 6.00059816E-01 0.00000000E+00 0.00000000E+00-6.26855573E-01 0.00000000E+00
 9  4 0.00000000E+00
10  1 3.03954071E+00-3.01244492E+00-6.00050229E-01 0.00000000E+00 0.00000000E+00
10  2 6.26855147E-01 0.00000000E+00 0.00000000E+00-3.03954071E+00 3.01244492E+00
10  3-6.00050229E-01 0.00000000E+00 0.00000000E+00 6.26855147E-01 0.00000000E+00
10  4 0.00000000E+00
11  1 4.72140349E-01-3.58986558E-01 1.90932685E+00 0.00000000E+00 0.00000000E+00
11  2-1.39355978E+00 0.00000000E+00 0.00000000E+00 4.72140349E-01-3.58986558E-01
11  3-1.90932685E+00 0.00000000E+00 0.00000000E+00 1.39355978E+00 0.00000000E+00
11  4 0.00000000E+00
12  1 4.72115524E-01-3.58963504E-01 1.90937393E+00 0.00000000E+00 2.18039669E-11
12  2-1.39361542E+00 0.00000000E+00-1.60242577E-11-4.72115524E-01 3.58963504E-01
12  3 1.90937393E+00 0.00000000E+00-2.18039669E-11-1.39361542E+00 0.00000000E+00
12  4 1.60242577E-11
13  1 0.00000000E+00 0.00000000E+00 0.00000000E+00 1.96901893E+00 0.00000000E+00
13  2 0.00000000E+00-1.44706531E+00 0.00000000E+00 0.00000000E+00 0.00000000E+00
13  3 0.00000000E+00 1.96901893E+00 0.00000000E+00 0.00000000E+00-1.44706531E+00
13  4 0.00000000E+00
14  1 0.00000000E+00 0.00000000E+00 0.00000000E+00 0.00000000E+00 1.96901893E+00
14  2 0.00000000E+00 0.00000000E+00-1.44706531E+00 0.00000000E+00 0.00000000E+00
14  3 0.00000000E+00 0.00000000E+00 1.96901893E+00 0.00000000E+00 0.00000000E+00
14  4-1.44706531E+00
15  1 0.00000000E+00 0.00000000E+00 0.00000000E+00 1.96902022E+00 0.00000000E+00
15  2 0.00000000E+00-1.44706688E+00 0.00000000E+00 0.00000000E+00 0.00000000E+00
15  3 0.00000000E+00-1.96902022E+00 0.00000000E+00 0.00000000E+00 1.44706688E+00
15  4 0.00000000E+00
16  1 0.00000000E+00 0.00000000E+00-2.11439293E-11 0.00000000E+00 1.96902022E+00
16  2 1.54327928E-11 0.00000000E+00-1.44706688E+00 0.00000000E+00 0.00000000E+00
16  3-2.11439293E-11 0.00000000E+00-1.96902022E+00 1.54327928E-11 0.00000000E+00
16  4 1.44706688E+00
 $END
