!
! THIS FILE USED TO GENERATE THE ORBITALS TO BE LATER
! USED IN A NEO-CI CALCULATION
! 
 $CONTRL SCFTYP=RHF  RUNTYP=ENERGY $END
 $SYSTEM TIMLIM=9999 MEMORY=5000000 $END
 $NEO NEOSCF=RONHF BASNUC=DZSPNB NUNIQN=1 IUNIQN(1)=1 
      NUMULT=3 SYMNUC=.T.  $END
 $BASIS  GBASIS=N31 NGAUSS=6 NPFUNC=1  $END
 $GUESS  GUESS=moread NORB=10  $END
 $DATA
H2 NEO-HF/6-31G/DZSNB
CNV 2

 H           1.0    .3649993801    .0000000000    .0000000000
 $END
--- CLOSED SHELL ORBITALS --- GENERATED AT Sun Oct  1 03:27:53 2006
H2 NEO-HF/6-31G/DZSNB                                                           
E(RHF)=       -1.1313287176, E(NUC)=    0.7249015726,    5 ITERS
 $VEC   
 1  1 3.19841696E-01 2.72847087E-01 1.82177810E-02 0.00000000E+00 0.00000000E+00
 1  2 3.19841696E-01 2.72847087E-01-1.82177810E-02 0.00000000E+00 0.00000000E+00
 2  1 1.18605666E-01 1.74638657E+00 2.73006377E-03 0.00000000E+00 0.00000000E+00
 2  2-1.18605666E-01-1.74638657E+00 2.73006377E-03 0.00000000E+00 0.00000000E+00
 3  1 7.42613035E-01-6.77242526E-01 3.33618063E-02 0.00000000E+00 0.00000000E+00
 3  2 7.42613035E-01-6.77242526E-01-3.33618063E-02 0.00000000E+00 0.00000000E+00
 4  1-8.73136709E-01 1.39973002E+00 2.92118804E-01 0.00000000E+00 0.00000000E+00
 4  2 8.73136709E-01-1.39973002E+00 2.92118804E-01 0.00000000E+00 0.00000000E+00
 5  1 0.00000000E+00 0.00000000E+00 0.00000000E+00 0.00000000E+00 6.08330724E-01
 5  2 0.00000000E+00 0.00000000E+00 0.00000000E+00 0.00000000E+00 6.08330724E-01
 6  1 0.00000000E+00 0.00000000E+00 0.00000000E+00 6.08330724E-01 0.00000000E+00
 6  2 0.00000000E+00 0.00000000E+00 0.00000000E+00 6.08330724E-01 0.00000000E+00
 7  1-3.87780531E-01 1.87467050E-01 6.51594674E-01 0.00000000E+00 0.00000000E+00
 7  2-3.87780531E-01 1.87467050E-01-6.51594674E-01 0.00000000E+00 0.00000000E+00
 8  1 0.00000000E+00 0.00000000E+00 0.00000000E+00 0.00000000E+00 8.77807419E-01
 8  2 0.00000000E+00 0.00000000E+00 0.00000000E+00 0.00000000E+00-8.77807419E-01
 9  1 0.00000000E+00 0.00000000E+00 0.00000000E+00 8.77807419E-01 0.00000000E+00
 9  2 0.00000000E+00 0.00000000E+00 0.00000000E+00-8.77807419E-01 0.00000000E+00
10  1 1.52470524E+00 1.48605539E-01 1.60879528E+00 0.00000000E+00 0.00000000E+00
10  2-1.52470524E+00-1.48605539E-01 1.60879528E+00 0.00000000E+00 0.00000000E+00
 $END   
