!
! Malonaldehyde NEO-CI calculation reading in and reordering
! orbitals from a previous NEO-HF calculation. 
! This calculation uses an auxilary basis function. The two
! basis functions for the single H nucleus are centered 0.46 Angs apart.
! Note that C2v symmetry generates the second center, so NAUXNB=0.
!
! electronic active space -> Pi system - 4 e in 4 orbs. 
! nuclear active space -> 1 proton in 4 oribitals.
!
!NEO-FCI energies and CI coeficients of states 1 and 2:
!
! STATE=  1 ENERGY =      -265.4469841838
!
!ALPHA |BETA  ||ALPHA |BETA  | COEFFICIENT
!------|------||------|------|------------
! 1000 | 0000 || 1100 | 1100 |   0.9748017
! 1000 | 0000 || 1010 | 1010 |  -0.0968153
! 1000 | 0000 || 1001 | 1001 |  -0.0774017
! 1000 | 0000 || 0110 | 0110 |  -0.0789181
! 0100 | 0000 || 1100 | 1010 |   0.0956206
! 0100 | 0000 || 1010 | 1100 |   0.0956206
!
! STATE=  2 ENERGY =      -265.4468001733
!
!ALPHA |BETA  ||ALPHA |BETA  | COEFFICIENT
!------|------||------|------|------------
! 1000 | 0000 || 1100 | 1010 |  -0.0957840
! 1000 | 0000 || 1010 | 1100 |  -0.0957840
! 0100 | 0000 || 1100 | 1100 |  -0.9747683
! 0100 | 0000 || 1010 | 1010 |   0.0968005
! 0100 | 0000 || 1001 | 1001 |   0.0774014
! 0100 | 0000 || 0110 | 0110 |   0.0789143
!
 $CONTRL SCFTYP=NONE CITYP=ALDET RUNTYP=ENERGY $END 
 $SYSTEM TIMLIM=2000 MEMORY=25000000 $END
 $NEO  NEOSCF=NONE NEOCI=FCI BASNUC=DZSNB NUNIQN=1 NTAUXB=1 NAUXNB=0
       IUNIQN(1)=9 IAUXNB(1)=10 NUMULT=2 SYMNUC=.T. $END
 $BASIS  GBASIS=N31 NGAUSS=6 $END
 $CIDET  NCORE=17 NACT=4 NELS=4 $END
 $NEODET NACT=4 NUCLEI=1 NSTATE=4 SZ=0.5 NFLGDM(1)=1,1,1,1  $END
 $GUESS  GUESS=MOREAD NORB=55 NORDER=1 IORDER(17)=18,17,19,20 $END
 $GESNMO GUESS=MOREAD NORB=4  $END
 $DATA
NEO-CI TEST
CNV      2

O           8.0      0.0000000000     -1.2043025053      0.8586911247
C           6.0      0.0000000000     -1.2052293448     -0.4659476200
C           6.0      0.0000000000      0.0000000000     -1.2002936900
H           1.0      0.0000000000      0.0000000000     -2.2851870581
H           1.0      0.0000000000     -2.1850230912     -0.9469575466
H           1.0      0.0000000000     -0.2300000000      1.1553078511
 $END      
--- CLOSED SHELL ORBITALS --- GENERATED AT SUN OCT  1 04:19:55 2006
NEO-CI TEST                                                                     
E(RHF)=     -265.4223986649, E(NUC)=  152.8543190616,   12 ITERS
 $VEC   
 1  1 7.04185639E-01 1.66349623E-02 0.00000000E+00-7.59476434E-04-1.13277409E-03
 1  2-1.05034339E-02 0.00000000E+00 1.72636297E-03 1.24126097E-03-7.04185639E-01
 1  3-1.66349623E-02 0.00000000E+00-7.59476434E-04 1.13277409E-03 1.05034339E-02
 1  4 0.00000000E+00 1.72636297E-03-1.24126097E-03 5.25617374E-05 4.91794916E-05
 1  5 0.00000000E+00 3.13452862E-05 1.65407548E-04 1.55614227E-03 0.00000000E+00
 1  6-7.30145752E-04 2.49631820E-03-5.25617374E-05-4.91794916E-05 0.00000000E+00
 1  7 3.13452862E-05-1.65407548E-04-1.55614227E-03 0.00000000E+00-7.30145752E-04
 1  8-2.49631820E-03 0.00000000E+00 0.00000000E+00 0.00000000E+00-2.86134310E-04
 1  9 0.00000000E+00 0.00000000E+00 0.00000000E+00 1.35206652E-03 0.00000000E+00
 1 10 0.00000000E+00 0.00000000E+00 6.42379635E-05 5.72543608E-04-6.42379635E-05
 1 11-5.72543608E-04 2.93831612E-04 1.25370918E-02-2.93831612E-04-1.25370918E-02
 2  1 7.04194117E-01 1.64998381E-02 0.00000000E+00-6.67129734E-04-1.21281945E-03
 2  2-9.98943417E-03 0.00000000E+00 1.79195790E-03 2.26083539E-03 7.04194117E-01
 2  3 1.64998381E-02 0.00000000E+00 6.67129734E-04-1.21281945E-03-9.98943417E-03
 2  4 0.00000000E+00-1.79195790E-03 2.26083539E-03 2.95704954E-05-1.43446306E-04
 2  5 0.00000000E+00 3.00998332E-05 4.42682662E-05 6.44861338E-03 0.00000000E+00
 2  6-3.48031109E-03 3.08039916E-03 2.95704954E-05-1.43446306E-04 0.00000000E+00
 2  7-3.00998332E-05 4.42682662E-05 6.44861338E-03 0.00000000E+00 3.48031109E-03
 2  8 3.08039916E-03 8.51722957E-05 5.48251570E-04 0.00000000E+00 0.00000000E+00
 2  9-1.05308019E-05-6.01914557E-03 0.00000000E+00 0.00000000E+00-5.52117184E-03
 2 10-3.57962511E-04-1.59340193E-03 8.07267734E-05 1.28740327E-03 8.07267734E-05
 2 11 1.28740327E-03 5.53810211E-04 1.32902456E-03 5.53810211E-04 1.32902456E-03
 3  1-1.12450483E-04 2.00596379E-04 0.00000000E+00-3.29008147E-05-9.88629044E-05
 3  2-5.09770764E-05 0.00000000E+00 1.54914157E-05 2.52420960E-04 1.12450483E-04
 3  3-2.00596379E-04 0.00000000E+00-3.29008147E-05 9.88629044E-05 5.09770764E-05
 3  4 0.00000000E+00 1.54914157E-05-2.52420960E-04 7.04465971E-01 1.70149222E-02
 3  5 0.00000000E+00-2.46560621E-04 5.34706798E-04-9.68879639E-03 0.00000000E+00
 3  6 1.71333066E-03 1.13493962E-03-7.04465971E-01-1.70149222E-02 0.00000000E+00
 3  7-2.46560621E-04-5.34706798E-04 9.68879639E-03 0.00000000E+00 1.71333066E-03
 3  8-1.13493962E-03 0.00000000E+00 0.00000000E+00 0.00000000E+00-2.61816739E-04
 3  9 0.00000000E+00 0.00000000E+00 0.00000000E+00 3.82065599E-03 0.00000000E+00
 3 10 0.00000000E+00 0.00000000E+00-1.21844737E-04 1.30656460E-03 1.21844737E-04
 3 11-1.30656460E-03 8.00241669E-05 1.62061301E-03-8.00241669E-05-1.62061301E-03
 4  1-1.10277872E-04 1.15566144E-04 0.00000000E+00-5.06689134E-06-4.43790630E-05
 4  2-1.36871944E-04 0.00000000E+00 1.43523976E-04 3.02141050E-04-1.10277872E-04
 4  3 1.15566144E-04 0.00000000E+00 5.06689134E-06-4.43790630E-05-1.36871944E-04
 4  4 0.00000000E+00-1.43523976E-04 3.02141050E-04 7.04401532E-01 1.65170628E-02
 4  5 0.00000000E+00-6.80003867E-05 4.78006818E-04-7.73471669E-03 0.00000000E+00
 4  6-1.65808912E-04 1.21288976E-03 7.04401532E-01 1.65170628E-02 0.00000000E+00
 4  7 6.80003867E-05 4.78006818E-04-7.73471669E-03 0.00000000E+00 1.65808912E-04
 4  8 1.21288976E-03 5.98060676E-03-6.66476059E-04 0.00000000E+00 0.00000000E+00
 4  9-1.00455675E-04 5.07178160E-03 0.00000000E+00 0.00000000E+00-4.56207843E-05
 4 10-3.45891942E-04-4.98945271E-04-3.98616560E-05 2.17377237E-03-3.98616560E-05
 4 11 2.17377237E-03 7.29407768E-05 2.56100316E-04 7.29407768E-05 2.56100316E-04
 5  1 1.86594778E-05 1.56465774E-04 0.00000000E+00 2.21775008E-06 2.28236330E-05
 5  2-1.41456765E-03 0.00000000E+00 2.79308315E-04 5.77827063E-04 1.86594778E-05
 5  3 1.56465774E-04 0.00000000E+00-2.21775008E-06 2.28236330E-05-1.41456765E-03
 5  4 0.00000000E+00-2.79308315E-04 5.77827063E-04-4.57056462E-03-9.14339176E-04
 5  5 0.00000000E+00 2.25943820E-04 1.55293998E-04 7.47845107E-03 0.00000000E+00
 5  6-3.77215505E-03-3.91754082E-05-4.57056462E-03-9.14339176E-04 0.00000000E+00
 5  7-2.25943820E-04 1.55293998E-04 7.47845107E-03 0.00000000E+00 3.77215505E-03
 5  8-3.91754082E-05 9.96124748E-01 2.54230065E-02 0.00000000E+00 0.00000000E+00
 5  9 7.53556313E-04-1.93654321E-02 0.00000000E+00 0.00000000E+00-5.22355100E-03
 5 10-4.01914627E-04 9.69791204E-04-5.36327079E-05 6.28928842E-04-5.36327079E-05
 5 11 6.28928842E-04 7.41037738E-05-1.24274042E-04 7.41037738E-05-1.24274042E-04
 6  1-1.37415021E-01 2.92874491E-01 0.00000000E+00-4.20149909E-02-7.36493999E-02
 6  2 3.42675198E-01 0.00000000E+00-3.42674537E-02-5.13882153E-02-1.37415021E-01
 6  3 2.92874491E-01 0.00000000E+00 4.20149909E-02-7.36493999E-02 3.42675198E-01
 6  4 0.00000000E+00 3.42674537E-02-5.13882153E-02-6.84882391E-02 1.39307840E-01
 6  5 0.00000000E+00-1.93584498E-02 8.91099463E-02-4.12671541E-03 0.00000000E+00
 6  6 2.10927988E-02-3.45753992E-02-6.84882391E-02 1.39307840E-01 0.00000000E+00
 6  7 1.93584498E-02 8.91099463E-02-4.12671541E-03 0.00000000E+00-2.10927988E-02
 6  8-3.45753992E-02-2.99593192E-02 5.34871431E-02 0.00000000E+00 0.00000000E+00
 6  9 3.17685215E-02 6.10364660E-02 0.00000000E+00 0.00000000E+00 4.93487336E-02
 6 10 8.90290621E-03 1.28926597E-02 1.80460640E-02-9.13678569E-03 1.80460640E-02
 6 11-9.13678569E-03 3.11823825E-02-4.59700385E-03 3.11823825E-02-4.59700385E-03
 7  1-1.45533791E-01 3.12472381E-01 0.00000000E+00-2.17240901E-02-8.31976776E-02
 7  2 3.70666937E-01 0.00000000E+00-2.40950011E-02-5.13764110E-02 1.45533791E-01
 7  3-3.12472381E-01 0.00000000E+00-2.17240901E-02 8.31976776E-02-3.70666937E-01
 7  4 0.00000000E+00-2.40950011E-02 5.13764110E-02-6.75054401E-02 1.40253673E-01
 7  5 0.00000000E+00-1.96313658E-03 1.02949795E-01 3.53323358E-02 0.00000000E+00
 7  6 1.16434760E-02-4.26368377E-02 6.75054401E-02-1.40253673E-01 0.00000000E+00
 7  7-1.96313658E-03-1.02949795E-01-3.53323358E-02 0.00000000E+00 1.16434760E-02
 7  8 4.26368377E-02 0.00000000E+00 0.00000000E+00 0.00000000E+00 3.25024775E-02
 7  9 0.00000000E+00 0.00000000E+00 0.00000000E+00-2.24732669E-02 0.00000000E+00
 7 10 0.00000000E+00 0.00000000E+00 1.97716248E-02-1.07844663E-02-1.97716248E-02
 7 11 1.07844663E-02 2.59747435E-02-5.56231842E-02-2.59747435E-02 5.56231842E-02
 8  1 5.52455779E-02-1.22251366E-01 0.00000000E+00 8.37041488E-03-3.63989218E-02
 8  2-1.63712327E-01 0.00000000E+00 1.05587469E-02-8.81990762E-03 5.52455779E-02
 8  3-1.22251366E-01 0.00000000E+00-8.37041488E-03-3.63989218E-02-1.63712327E-01
 8  4 0.00000000E+00-1.05587469E-02-8.81990762E-03-8.67926551E-02 1.87936094E-01
 8  5 0.00000000E+00-1.00087707E-01-1.07324149E-01 1.26398074E-01 0.00000000E+00
 8  6-1.86898140E-02-1.03837553E-02-8.67926551E-02 1.87936094E-01 0.00000000E+00
 8  7 1.00087707E-01-1.07324149E-01 1.26398074E-01 0.00000000E+00 1.86898140E-02
 8  8-1.03837553E-02-1.65261892E-01 3.23489815E-01 0.00000000E+00 0.00000000E+00
 8  9 6.66643909E-02 2.34760852E-01 0.00000000E+00 0.00000000E+00 6.48748133E-03
 8 10 8.61164282E-02 1.79085851E-02 4.78326484E-02 1.14295439E-02 4.78326484E-02
 8 11 1.14295439E-02-1.92287895E-02-4.60316980E-03-1.92287895E-02-4.60316980E-03
 9  1 5.72051022E-02-1.30029253E-01 0.00000000E+00 3.05881698E-02-8.93933362E-02
 9  2-1.77808921E-01 0.00000000E+00 1.86180342E-02-4.38043244E-02-5.72051022E-02
 9  3 1.30029253E-01 0.00000000E+00 3.05881698E-02 8.93933362E-02 1.77808921E-01
 9  4 0.00000000E+00 1.86180342E-02 4.38043244E-02-1.23591146E-01 2.72972369E-01
 9  5 0.00000000E+00 1.52031024E-02-1.12919985E-01 2.40621310E-01 0.00000000E+00
 9  6 6.01217173E-03-5.57931133E-02 1.23591146E-01-2.72972369E-01 0.00000000E+00
 9  7 1.52031024E-02 1.12919985E-01-2.40621310E-01 0.00000000E+00 6.01217173E-03
 9  8 5.57931133E-02 0.00000000E+00 0.00000000E+00 0.00000000E+00 2.27499886E-01
 9  9 0.00000000E+00 0.00000000E+00 0.00000000E+00 1.11453480E-02 0.00000000E+00
 9 10 0.00000000E+00 0.00000000E+00 1.32480906E-01 4.09211190E-02-1.32480906E-01
 9 11-4.09211190E-02-2.62383991E-02 2.09283269E-02 2.62383991E-02-2.09283269E-02
10  1 1.39162121E-02-3.04035317E-02 0.00000000E+00 1.93664090E-01-1.50102117E-01
10  2-4.69869594E-02 0.00000000E+00 1.06540794E-01-7.53692357E-02 1.39162121E-02
10  3-3.04035317E-02 0.00000000E+00-1.93664090E-01-1.50102117E-01-4.69869594E-02
10  4 0.00000000E+00-1.06540794E-01-7.53692357E-02-6.65375675E-02 1.53560499E-01
10  5 0.00000000E+00 2.08643498E-01 5.99084737E-02 1.17852675E-01 0.00000000E+00
10  6 8.28061565E-02-2.54931194E-02-6.65375675E-02 1.53560499E-01 0.00000000E+00
10  7-2.08643498E-01 5.99084737E-02 1.17852675E-01 0.00000000E+00-8.28061565E-02
10  8-2.54931194E-02 6.95793517E-02-1.34614657E-01 0.00000000E+00 0.00000000E+00
10  9-9.93444132E-03-1.26911543E-01 0.00000000E+00 0.00000000E+00 2.98295939E-02
10 10-5.49471546E-02-1.13195845E-02 1.33304497E-01 4.21803002E-02 1.33304497E-01
10 11 4.21803002E-02-6.31237294E-02-2.41740111E-02-6.31237294E-02-2.41740111E-02
11  1 3.94679567E-02-9.56484237E-02 0.00000000E+00-7.00396275E-02-1.89868984E-01
11  2-1.31317329E-01 0.00000000E+00-4.96925248E-02-1.02967908E-01 3.94679567E-02
11  3-9.56484237E-02 0.00000000E+00 7.00396275E-02-1.89868984E-01-1.31317329E-01
11  4 0.00000000E+00 4.96925248E-02-1.02967908E-01-2.74057390E-02 6.70014884E-02
11  5 0.00000000E+00-1.56402336E-01 1.38428270E-01 3.10508591E-02 0.00000000E+00
11  6-7.64152084E-02 3.61329408E-02-2.74057390E-02 6.70014884E-02 0.00000000E+00
11  7 1.56402336E-01 1.38428270E-01 3.10508591E-02 0.00000000E+00 7.64152084E-02
11  8 3.61329408E-02 4.32664830E-02-8.36027114E-02 0.00000000E+00 0.00000000E+00
11  9 2.92197042E-01-1.42659138E-01 0.00000000E+00 0.00000000E+00 1.26640744E-01
11 10-2.00552962E-01-1.06173625E-01-7.41132599E-02-3.41807495E-02-7.41132599E-02
11 11-3.41807495E-02-1.51131256E-02-3.18997303E-02-1.51131256E-02-3.18997303E-02
12  1-1.64982088E-02 3.26413369E-02 0.00000000E+00-2.08879166E-01 1.24116854E-01
12  2 8.44069676E-02 0.00000000E+00-1.30474478E-01 7.30318019E-02 1.64982088E-02
12  3-3.26413369E-02 0.00000000E+00-2.08879166E-01-1.24116854E-01-8.44069676E-02
12  4 0.00000000E+00-1.30474478E-01-7.30318019E-02-8.78756456E-03 1.48682893E-02
12  5 0.00000000E+00-2.91189312E-01-1.44078573E-01 2.09193302E-02 0.00000000E+00
12  6-1.19764671E-01-2.11130131E-02 8.78756456E-03-1.48682893E-02 0.00000000E+00
12  7-2.91189312E-01 1.44078573E-01-2.09193302E-02 0.00000000E+00-1.19764671E-01
12  8 2.11130131E-02 0.00000000E+00 0.00000000E+00 0.00000000E+00 3.01384546E-01
12  9 0.00000000E+00 0.00000000E+00 0.00000000E+00 1.02456179E-01 0.00000000E+00
12 10 0.00000000E+00 0.00000000E+00-1.03023686E-01-5.53447280E-02 1.03023686E-01
12 11 5.53447280E-02 4.23915193E-02-4.84878241E-02-4.23915193E-02 4.84878241E-02
13  1-1.82872091E-02 4.68194827E-02 0.00000000E+00 2.17280064E-01-1.46279364E-01
13  2 4.68472955E-02 0.00000000E+00 1.57949410E-01-8.13415439E-02-1.82872091E-02
13  3 4.68194827E-02 0.00000000E+00-2.17280064E-01-1.46279364E-01 4.68472955E-02
13  4 0.00000000E+00-1.57949410E-01-8.13415439E-02 3.49597913E-02-6.63930611E-02
13  5 0.00000000E+00-1.07743275E-01 1.88758263E-01-9.76748785E-02 0.00000000E+00
13  6-5.55193201E-02 7.56356677E-02 3.49597913E-02-6.63930611E-02 0.00000000E+00
13  7 1.07743275E-01 1.88758263E-01-9.76748785E-02 0.00000000E+00 5.55193201E-02
13  8 7.56356677E-02-5.38877749E-02 1.11605409E-01 0.00000000E+00 0.00000000E+00
13  9-1.49695167E-01 1.57351216E-01 0.00000000E+00 0.00000000E+00-1.25104857E-01
13 10 1.57362143E-01 7.08481708E-02-1.61226413E-01-1.01569892E-01-1.61226413E-01
13 11-1.01569892E-01-6.39960664E-02-4.41628459E-02-6.39960664E-02-4.41628459E-02
14  1-4.22855479E-02 1.03518158E-01 0.00000000E+00 7.01726330E-02 3.23526961E-01
14  2 1.33433678E-01 0.00000000E+00 4.86852713E-02 1.88691797E-01 4.22855479E-02
14  3-1.03518158E-01 0.00000000E+00 7.01726330E-02-3.23526961E-01-1.33433678E-01
14  4 0.00000000E+00 4.86852713E-02-1.88691797E-01 2.14656028E-02-6.10772516E-02
14  5 0.00000000E+00 1.43216607E-01-2.45068634E-01-3.28043472E-02 0.00000000E+00
14  6 9.88057028E-02-4.91820404E-02-2.14656028E-02 6.10772516E-02 0.00000000E+00
14  7 1.43216607E-01 2.45068634E-01 3.28043472E-02 0.00000000E+00 9.88057028E-02
14  8 4.91820404E-02 0.00000000E+00 0.00000000E+00 0.00000000E+00 8.81466936E-03
14  9 0.00000000E+00 0.00000000E+00 0.00000000E+00 4.11432195E-02 0.00000000E+00
14 10 0.00000000E+00 0.00000000E+00 1.16881301E-01 6.94247128E-02-1.16881301E-01
14 11-6.94247128E-02 2.81204798E-02 1.54429027E-01-2.81204798E-02-1.54429027E-01
15  1 0.00000000E+00 0.00000000E+00 3.23065231E-01 0.00000000E+00 0.00000000E+00
15  2 0.00000000E+00 2.40534006E-01 0.00000000E+00 0.00000000E+00 0.00000000E+00
15  3 0.00000000E+00 3.23065231E-01 0.00000000E+00 0.00000000E+00 0.00000000E+00
15  4 2.40534006E-01 0.00000000E+00 0.00000000E+00 0.00000000E+00 0.00000000E+00
15  5 2.08412954E-01 0.00000000E+00 0.00000000E+00 0.00000000E+00 1.31312330E-01
15  6 0.00000000E+00 0.00000000E+00 0.00000000E+00 0.00000000E+00 2.08412954E-01
15  7 0.00000000E+00 0.00000000E+00 0.00000000E+00 1.31312330E-01 0.00000000E+00
15  8 0.00000000E+00 0.00000000E+00 0.00000000E+00 1.74026563E-01 0.00000000E+00
15  9 0.00000000E+00 0.00000000E+00 1.02243358E-01 0.00000000E+00 0.00000000E+00
15 10 0.00000000E+00 0.00000000E+00 0.00000000E+00 0.00000000E+00 0.00000000E+00
15 11 0.00000000E+00 0.00000000E+00 0.00000000E+00 0.00000000E+00 0.00000000E+00
16  1-3.47477444E-02 9.03760619E-02 0.00000000E+00 2.65837306E-01 2.14579593E-01
16  2 1.05035469E-01 0.00000000E+00 2.10811963E-01 1.47714989E-01-3.47477444E-02
16  3 9.03760619E-02 0.00000000E+00-2.65837306E-01 2.14579593E-01 1.05035469E-01
16  4 0.00000000E+00-2.10811963E-01 1.47714989E-01 3.05861988E-03-2.54460494E-03
16  5 0.00000000E+00-1.13192045E-01-1.40160479E-01-3.04539435E-02 0.00000000E+00
16  6 4.34463542E-02-2.07714346E-02 3.05861988E-03-2.54460494E-03 0.00000000E+00
16  7 1.13192045E-01-1.40160479E-01-3.04539435E-02 0.00000000E+00-4.34463542E-02
16  8-2.07714346E-02-2.55325585E-02 5.22172431E-02 0.00000000E+00 0.00000000E+00
16  9 2.88173385E-01 1.83668252E-01 0.00000000E+00 0.00000000E+00 1.81952917E-01
16 10-1.72564247E-01-1.36869600E-01-3.71981093E-02-6.08554855E-02-3.71981093E-02
16 11-6.08554855E-02-3.55523189E-02 1.11294132E-02-3.55523189E-02 1.11294132E-02
17  1 0.00000000E+00 0.00000000E+00 3.91948598E-01 0.00000000E+00 0.00000000E+00
17  2 0.00000000E+00 2.94439331E-01 0.00000000E+00 0.00000000E+00 0.00000000E+00
17  3 0.00000000E+00-3.91948598E-01 0.00000000E+00 0.00000000E+00 0.00000000E+00
17  4-2.94439331E-01 0.00000000E+00 0.00000000E+00 0.00000000E+00 0.00000000E+00
17  5 1.86416759E-01 0.00000000E+00 0.00000000E+00 0.00000000E+00 1.24932507E-01
17  6 0.00000000E+00 0.00000000E+00 0.00000000E+00 0.00000000E+00-1.86416759E-01
17  7 0.00000000E+00 0.00000000E+00 0.00000000E+00-1.24932507E-01 0.00000000E+00
17  8 0.00000000E+00 0.00000000E+00 0.00000000E+00 0.00000000E+00 0.00000000E+00
17  9 0.00000000E+00 0.00000000E+00 0.00000000E+00 0.00000000E+00 0.00000000E+00
17 10 0.00000000E+00 0.00000000E+00 0.00000000E+00 0.00000000E+00 0.00000000E+00
17 11 0.00000000E+00 0.00000000E+00 0.00000000E+00 0.00000000E+00 0.00000000E+00
18  1-5.92657705E-03 2.98727722E-02 0.00000000E+00 4.15624508E-01 1.32039223E-02
18  2-6.18842816E-02 0.00000000E+00 3.49262672E-01 7.88311101E-03 5.92657705E-03
18  3-2.98727722E-02 0.00000000E+00 4.15624508E-01-1.32039223E-02 6.18842816E-02
18  4 0.00000000E+00 3.49262672E-01-7.88311101E-03-2.24811972E-03 1.46240467E-02
18  5 0.00000000E+00-1.61542814E-01-1.23536060E-02-4.29476307E-02 0.00000000E+00
18  6-3.66505963E-02 5.92364980E-02 2.24811972E-03-1.46240467E-02 0.00000000E+00
18  7-1.61542814E-01 1.23536060E-02 4.29476307E-02 0.00000000E+00-3.66505963E-02
18  8-5.92364980E-02 0.00000000E+00 0.00000000E+00 0.00000000E+00 2.08720603E-01
18  9 0.00000000E+00 0.00000000E+00 0.00000000E+00 1.77488571E-01 0.00000000E+00
18 10 0.00000000E+00 0.00000000E+00-1.29427438E-01-1.24558443E-01 1.29427438E-01
18 11 1.24558443E-01-5.26313497E-02 2.11995473E-01 5.26313497E-02-2.11995473E-01
19  1 0.00000000E+00 0.00000000E+00-2.66960399E-01 0.00000000E+00 0.00000000E+00
19  2 0.00000000E+00-2.53881787E-01 0.00000000E+00 0.00000000E+00 0.00000000E+00
19  3 0.00000000E+00-2.66960399E-01 0.00000000E+00 0.00000000E+00 0.00000000E+00
19  4-2.53881787E-01 0.00000000E+00 0.00000000E+00 0.00000000E+00 0.00000000E+00
19  5 1.42779063E-01 0.00000000E+00 0.00000000E+00 0.00000000E+00 8.08593145E-02
19  6 0.00000000E+00 0.00000000E+00 0.00000000E+00 0.00000000E+00 1.42779063E-01
19  7 0.00000000E+00 0.00000000E+00 0.00000000E+00 8.08593145E-02 0.00000000E+00
19  8 0.00000000E+00 0.00000000E+00 0.00000000E+00 3.99964466E-01 0.00000000E+00
19  9 0.00000000E+00 0.00000000E+00 3.89657107E-01 0.00000000E+00 0.00000000E+00
19 10 0.00000000E+00 0.00000000E+00 0.00000000E+00 0.00000000E+00 0.00000000E+00
19 11 0.00000000E+00 0.00000000E+00 0.00000000E+00 0.00000000E+00 0.00000000E+00
20  1 0.00000000E+00 0.00000000E+00-2.37450199E-01 0.00000000E+00 0.00000000E+00
20  2 0.00000000E+00-3.01103109E-01 0.00000000E+00 0.00000000E+00 0.00000000E+00
20  3 0.00000000E+00 2.37450199E-01 0.00000000E+00 0.00000000E+00 0.00000000E+00
20  4 3.01103109E-01 0.00000000E+00 0.00000000E+00 0.00000000E+00 0.00000000E+00
20  5 3.56806805E-01 0.00000000E+00 0.00000000E+00 0.00000000E+00 4.80797010E-01
20  6 0.00000000E+00 0.00000000E+00 0.00000000E+00 0.00000000E+00-3.56806805E-01
20  7 0.00000000E+00 0.00000000E+00 0.00000000E+00-4.80797010E-01 0.00000000E+00
20  8 0.00000000E+00 0.00000000E+00 0.00000000E+00 0.00000000E+00 0.00000000E+00
20  9 0.00000000E+00 0.00000000E+00 0.00000000E+00 0.00000000E+00 0.00000000E+00
20 10 0.00000000E+00 0.00000000E+00 0.00000000E+00 0.00000000E+00 0.00000000E+00
20 11 0.00000000E+00 0.00000000E+00 0.00000000E+00 0.00000000E+00 0.00000000E+00
21  1 0.00000000E+00 0.00000000E+00 1.57853394E-01 0.00000000E+00 0.00000000E+00
21  2 0.00000000E+00 2.51004796E-01 0.00000000E+00 0.00000000E+00 0.00000000E+00
21  3 0.00000000E+00 1.57853394E-01 0.00000000E+00 0.00000000E+00 0.00000000E+00
21  4 2.51004796E-01 0.00000000E+00 0.00000000E+00 0.00000000E+00 0.00000000E+00
21  5-3.14989264E-01 0.00000000E+00 0.00000000E+00 0.00000000E+00-6.27522105E-01
21  6 0.00000000E+00 0.00000000E+00 0.00000000E+00 0.00000000E+00-3.14989264E-01
21  7 0.00000000E+00 0.00000000E+00 0.00000000E+00-6.27522105E-01 0.00000000E+00
21  8 0.00000000E+00 0.00000000E+00 0.00000000E+00 3.49104574E-01 0.00000000E+00
21  9 0.00000000E+00 0.00000000E+00 7.93268941E-01 0.00000000E+00 0.00000000E+00
21 10 0.00000000E+00 0.00000000E+00 0.00000000E+00 0.00000000E+00 0.00000000E+00
21 11 0.00000000E+00 0.00000000E+00 0.00000000E+00 0.00000000E+00 0.00000000E+00
22  1 5.04299097E-03-1.04584967E-02 0.00000000E+00 3.82961667E-02 3.27665126E-02
22  2-5.98220487E-02 0.00000000E+00 9.96437101E-02 5.60954748E-02 5.04299097E-03
22  3-1.04584967E-02 0.00000000E+00-3.82961667E-02 3.27665126E-02-5.98220487E-02
22  4 0.00000000E+00-9.96437101E-02 5.60954748E-02 5.30793201E-02-8.07051763E-02
22  5 0.00000000E+00-1.45819759E-01 1.10269148E-01-8.19509910E-01 0.00000000E+00
22  6-4.79977799E-01 3.15124956E-01 5.30793201E-02-8.07051763E-02 0.00000000E+00
22  7 1.45819759E-01 1.10269148E-01-8.19509910E-01 0.00000000E+00 4.79977799E-01
22  8 3.15124956E-01 2.74015368E-02-1.72174195E-02 0.00000000E+00 0.00000000E+00
22  9 1.93906760E-01-6.55003023E-01 0.00000000E+00 0.00000000E+00 4.92585640E-01
22 10 4.02664073E-02 1.10099704E+00 4.53371564E-02 1.22278605E+00 4.53371564E-02
22 11 1.22278605E+00-5.57723233E-03-5.28400320E-02-5.57723233E-03-5.28400320E-02
23  1-1.20946407E-02 2.56178425E-02 0.00000000E+00 3.19991436E-02-7.42003141E-02
23  2 9.95272403E-02 0.00000000E+00 1.02846721E-01-9.85417053E-02 1.20946407E-02
23  3-2.56178425E-02 0.00000000E+00 3.19991436E-02 7.42003141E-02-9.95272403E-02
23  4 0.00000000E+00 1.02846721E-01 9.85417053E-02 7.30312348E-02-8.42722606E-02
23  5 0.00000000E+00-1.93814249E-01 7.23305588E-02-1.53027736E+00 0.00000000E+00
23  6-6.77137196E-01 4.59533885E-01-7.30312348E-02 8.42722606E-02 0.00000000E+00
23  7-1.93814249E-01-7.23305588E-02 1.53027736E+00 0.00000000E+00-6.77137196E-01
23  8-4.59533885E-01 0.00000000E+00 0.00000000E+00 0.00000000E+00 6.58923149E-02
23  9 0.00000000E+00 0.00000000E+00 0.00000000E+00 6.41923905E-01 0.00000000E+00
23 10 0.00000000E+00 0.00000000E+00 4.75572503E-03 1.64658875E+00-4.75572503E-03
23 11-1.64658875E+00-1.51549819E-03-2.20923211E-01 1.51549819E-03 2.20923211E-01
24  1 2.77315129E-02-6.97878359E-02 0.00000000E+00 4.36865932E-02 7.14202765E-02
24  2-1.69132789E-01 0.00000000E+00 5.12003230E-02 5.36613869E-02 2.77315129E-02
24  3-6.97878359E-02 0.00000000E+00-4.36865932E-02 7.14202765E-02-1.69132789E-01
24  4 0.00000000E+00-5.12003230E-02 5.36613869E-02-6.00547558E-02 1.00962345E-01
24  5 0.00000000E+00 4.88631389E-02-2.48696928E-03 5.02556698E-01 0.00000000E+00
24  6 6.51020428E-01-3.34075109E-01-6.00547558E-02 1.00962345E-01 0.00000000E+00
24  7-4.88631389E-02-2.48696928E-03 5.02556698E-01 0.00000000E+00-6.51020428E-01
24  8-3.34075109E-01 9.00480080E-02-1.50848178E-01 0.00000000E+00 0.00000000E+00
24  9 1.54046259E-01-1.04044829E+00 0.00000000E+00 0.00000000E+00 1.43996601E+00
24 10 3.87542302E-02 2.10441005E+00-2.86258522E-02-1.03949911E+00-2.86258522E-02
24 11-1.03949911E+00-1.16985947E-03 2.48199397E-01-1.16985947E-03 2.48199397E-01
25  1 7.53755805E-02-1.00072834E-01 0.00000000E+00 7.32871338E-02 3.86964656E-02
25  2-1.15962878E+00 0.00000000E+00 1.97618175E-01 2.80764997E-01 7.53755805E-02
25  3-1.00072834E-01 0.00000000E+00-7.32871338E-02 3.86964656E-02-1.15962878E+00
25  4 0.00000000E+00-1.97618175E-01 2.80764997E-01 5.55890506E-03-3.32464308E-02
25  5 0.00000000E+00 7.88336388E-02 1.76600165E-01 2.16013059E-03 0.00000000E+00
25  6 4.15529659E-01 9.55843044E-01 5.55890506E-03-3.32464308E-02 0.00000000E+00
25  7-7.88336388E-02 1.76600165E-01 2.16013059E-03 0.00000000E+00-4.15529659E-01
25  8 9.55843044E-01-6.24794923E-02 1.03556017E-02 0.00000000E+00 0.00000000E+00
25  9-4.16173923E-02 1.83273571E+00 0.00000000E+00 0.00000000E+00-1.74608502E-01
25 10 7.63912155E-02-6.90349468E-01-1.53068619E-03 1.63473106E-02-1.53068619E-03
25 11 1.63473106E-02 3.45802647E-02 5.40731540E-01 3.45802647E-02 5.40731540E-01
26  1 5.76824416E-02-6.11727854E-02 0.00000000E+00-1.06348871E-03 1.85793270E-01
26  2-1.10213732E+00 0.00000000E+00 1.18741095E-01 5.48930434E-01-5.76824416E-02
26  3 6.11727854E-02 0.00000000E+00-1.06348871E-03-1.85793270E-01 1.10213732E+00
26  4 0.00000000E+00 1.18741095E-01-5.48930434E-01-7.18985673E-02 7.86604119E-02
26  5 0.00000000E+00-2.17179999E-01 9.00363132E-02 1.32086336E+00 0.00000000E+00
26  6-6.90838716E-01 8.47142289E-01 7.18985673E-02-7.86604119E-02 0.00000000E+00
26  7-2.17179999E-01-9.00363132E-02-1.32086336E+00 0.00000000E+00-6.90838716E-01
26  8-8.47142289E-01 0.00000000E+00 0.00000000E+00 0.00000000E+00-8.45185947E-02
26  9 0.00000000E+00 0.00000000E+00 0.00000000E+00-9.33608773E-01 0.00000000E+00
26 10 0.00000000E+00 0.00000000E+00-3.38891565E-05 5.73331224E-01 3.38891565E-05
26 11-5.73331224E-01 9.47322223E-03 6.22340757E-01-9.47322223E-03-6.22340757E-01
27  1-1.81267736E-02 3.85552780E-02 0.00000000E+00-1.74698272E-01 2.01630175E-01
27  2 1.23660683E-01 0.00000000E+00-6.21083718E-01 4.63730784E-01-1.81267736E-02
27  3 3.85552780E-02 0.00000000E+00 1.74698272E-01 2.01630175E-01 1.23660683E-01
27  4 0.00000000E+00 6.21083718E-01 4.63730784E-01-2.59586929E-03 1.32713686E-02
27  5 0.00000000E+00 1.10450169E-01 4.64170884E-02-3.01671607E-01 0.00000000E+00
27  6 1.03795608E+00 9.47839154E-01-2.59586929E-03 1.32713686E-02 0.00000000E+00
27  7-1.10450169E-01 4.64170884E-02-3.01671607E-01 0.00000000E+00-1.03795608E+00
27  8 9.47839154E-01-5.93856084E-02 7.33734879E-03 0.00000000E+00 0.00000000E+00
27  9 4.96690974E-02 2.27348348E+00 0.00000000E+00 0.00000000E+00 1.12071274E+00
27 10 1.05130746E-01 4.36334354E-01 7.82021725E-02-4.30859380E-01 7.82021725E-02
27 11-4.30859380E-01-2.59272192E-03-1.01720344E+00-2.59272192E-03-1.01720344E+00
28  1 4.48639311E-02-3.62935678E-02 0.00000000E+00-1.38149598E-01 1.32978581E-02
28  2-1.16349500E+00 0.00000000E+00-1.36208762E-01 2.37146227E-01-4.48639311E-02
28  3 3.62935678E-02 0.00000000E+00-1.38149598E-01-1.32978581E-02 1.16349500E+00
28  4 0.00000000E+00-1.36208762E-01-2.37146227E-01 3.27676842E-02-9.65264468E-02
28  5 0.00000000E+00 1.32089099E-01 1.26674666E-01-1.61454991E+00 0.00000000E+00
28  6 1.40381342E+00 1.73879773E+00-3.27676842E-02 9.65264468E-02 0.00000000E+00
28  7 1.32089099E-01-1.26674666E-01 1.61454991E+00 0.00000000E+00 1.40381342E+00
28  8-1.73879773E+00 0.00000000E+00 0.00000000E+00 0.00000000E+00 1.97479906E-01
28  9 0.00000000E+00 0.00000000E+00 0.00000000E+00 3.18770311E+00 0.00000000E+00
28 10 0.00000000E+00 0.00000000E+00-1.19621146E-01-2.01345807E-01 1.19621146E-01
28 11 2.01345807E-01 2.63147816E-02 1.65976931E+00-2.63147816E-02-1.65976931E+00
29  1-3.09237590E-02 2.65114184E-02 0.00000000E+00 1.43337090E-02-1.86834751E-01
29  2 8.31480474E-01 0.00000000E+00-1.16216191E-01-6.87851751E-01-3.09237590E-02
29  3 2.65114184E-02 0.00000000E+00-1.43337090E-02-1.86834751E-01 8.31480474E-01
29  4 0.00000000E+00 1.16216191E-01-6.87851751E-01 9.37787550E-02 1.41030995E-01
29  5 0.00000000E+00 1.06380417E-01-5.96504307E-02-3.09877023E+00 0.00000000E+00
29  6 2.16630853E+00-6.85666927E-01 9.37787550E-02 1.41030995E-01 0.00000000E+00
29  7-1.06380417E-01-5.96504307E-02-3.09877023E+00 0.00000000E+00-2.16630853E+00
29  8-6.85666927E-01-1.37600944E-01 2.47139961E-01 0.00000000E+00 0.00000000E+00
29  9 2.90250479E-01 3.62389698E+00 0.00000000E+00 0.00000000E+00 3.16942955E+00
29 10-1.13214604E-01 1.50945030E+00 9.49604477E-02-7.86285515E-01 9.49604477E-02
29 11-7.86285515E-01 6.26515966E-02 4.09696803E-01 6.26515966E-02 4.09696803E-01
30  1 4.20893211E-02-3.44169500E-02 0.00000000E+00 2.64500238E-02-8.80086373E-02
30  2-1.22614180E+00 0.00000000E+00 7.23344089E-01-7.72485122E-01-4.20893211E-02
30  3 3.44169500E-02 0.00000000E+00 2.64500238E-02 8.80086373E-02 1.22614180E+00
30  4 0.00000000E+00 7.23344089E-01 7.72485122E-01-9.52192119E-03-1.01709872E-02
30  5 0.00000000E+00 5.14021781E-02 1.70601219E-01-1.40231601E-01 0.00000000E+00
30  6-5.82884536E-01-1.47876424E+00 9.52192119E-03 1.01709872E-02 0.00000000E+00
30  7 5.14021781E-02-1.70601219E-01 1.40231601E-01 0.00000000E+00-5.82884536E-01
30  8 1.47876424E+00 0.00000000E+00 0.00000000E+00 0.00000000E+00-2.97639615E-01
30  9 0.00000000E+00 0.00000000E+00 0.00000000E+00-8.88275508E-01 0.00000000E+00
30 10 0.00000000E+00 0.00000000E+00-3.54592465E-02 3.00732437E-02 3.54592465E-02
30 11-3.00732437E-02-2.16342702E-02 1.00903512E+01 2.16342702E-02-1.00903512E+01
31  1 0.00000000E+00 0.00000000E+00 7.83164961E-02 0.00000000E+00 0.00000000E+00
31  2 0.00000000E+00 5.40423845E-02 0.00000000E+00 0.00000000E+00 0.00000000E+00
31  3 0.00000000E+00 7.83164961E-02 0.00000000E+00 0.00000000E+00 0.00000000E+00
31  4 5.40423845E-02 0.00000000E+00 0.00000000E+00 0.00000000E+00 0.00000000E+00
31  5 6.59831902E-01 0.00000000E+00 0.00000000E+00 0.00000000E+00-6.52210759E-01
31  6 0.00000000E+00 0.00000000E+00 0.00000000E+00 0.00000000E+00 6.59831902E-01
31  7 0.00000000E+00 0.00000000E+00 0.00000000E+00-6.52210759E-01 0.00000000E+00
31  8 0.00000000E+00 0.00000000E+00 0.00000000E+00 5.05781242E-01 0.00000000E+00
31  9 0.00000000E+00 0.00000000E+00-2.39974688E-01 0.00000000E+00 0.00000000E+00
31 10 0.00000000E+00 0.00000000E+00 0.00000000E+00 0.00000000E+00 0.00000000E+00