 $CONTRL SCFTYP=RHF RUNTYP=OPTIMIZE MAXIT=100 MULT=1 $END
 $SYSTEM MWORDS=300 MEMDDI=1280 $END
 $BASIS  GBASIS=N21 NGAUSS=3 $END
 $STATPT HSSEND=.F.  NSTEP=1000 $END
 $PCM SOLVNT=WATER $END
 $DATA

C1
 C           6.0   0.3862029631  -0.1792070125   0.5220260884
 C           6.0  -0.7372068004  -0.2916253753  -0.4902337270
 C           6.0  -1.5946411097  -1.4945481704  -0.1551831418
 C           6.0  -0.7421326815  -2.7466024561  -0.0465667603
 C           6.0   0.4186749691  -2.5177875651   0.9163164776
 O           8.0   1.1326991168  -1.3549798297   0.5440612224
 O           8.0   1.1985470295   0.8619223516   0.1324091336
 O           8.0  -1.5650427927   0.8359958851  -0.4720126488
 O           8.0  -2.5686348095  -1.7310297789  -1.1320554127
 O           8.0  -1.4928171045  -3.8158454544   0.4499980737
 C           6.0   1.4284485956  -3.6520476533   0.9216837190
 O           8.0   2.0580532435  -3.7959562077  -0.3165615463
 H           1.0  -0.0229809768   0.0054677976   1.5158032148
 H           1.0  -0.2879843513  -0.4234252866  -1.4710881703
 H           1.0  -2.0757123967  -1.3181092845   0.8056360291
 H           1.0  -0.3442516322  -2.9847892360  -1.0278467464
 H           1.0   0.0171394311  -2.3989166586   1.9219701813
 H           1.0   1.8949769341   0.9819345410   0.7530270465
 H           1.0  -1.0717285924   1.5947429138  -0.7282610805
 H           1.0  -3.1068633340  -0.9652470961  -1.2273390558
 H           1.0  -2.2267911819  -3.9651268896  -0.1193998726
 H           1.0   0.9271260366  -4.5832908956   1.1379622003
 H           1.0   2.1588386049  -3.4622828723   1.7051787981
 H           1.0   2.4784277792  -2.9845090364  -0.5391381222
 $END
