!Neo-Hartee-Fock energy gradient test on H5O2+
!NUCOPT=.T. meaning the positions of all QM Hydrogens are optimized
!leaving only the non-QM nuclei with 'non-zero' gradients.
!Electronic basis set: 6-31G
!Nuclear basis set: DZSNB
!Results:
!
!FINAL RHF ENERGY IS     -152.1384888199 AFTER   3 ITERATIONS
!
!         NSERCH= 30     ENERGY=    -152.1384888
!
!                                -----------------------
!                                GRADIENT (HARTREE/BOHR)
!                                -----------------------
!       ATOM     ZNUC       DE/DX         DE/DY         DE/DZ
!--------------------------------------------------------------
! 1  H            0.0     0.0000000     0.0000000     0.0000001
! 2  H            0.0     0.0000001     0.0000001    -0.0000001
! 3  H            0.0     0.0000001    -0.0000001     0.0000000
! 4  H            0.0     0.0000001    -0.0000001    -0.0000002
! 5  H            0.0    -0.0000001     0.0000001     0.0000000
! 6  O            8.0     0.0004727    -0.0011542     0.0012756
! 7  O            8.0    -0.0004729     0.0011542    -0.0012754
!
!
!NOTE: SOME CARTESIAN COORDINATES ARE FROZEN,
!      THE CORRESPONDING GRADIENTS ARE SET TO BE ZERO.
!
!         MAXIMUM GRADIENT =  0.0000002    RMS GRADIENT = 0.0000001
!
!     ***** EQUILIBRIUM GEOMETRY LOCATED *****
!           (SUBJECT TO   6 CONSTRAINT(S))
!COORDINATES OF ALL ATOMS ARE (ANGS)
!  ATOM   CHARGE       X              Y              Z
!------------------------------------------------------------
!H           0.0   0.3945048837  -0.5817159857   0.7395502520
!H           0.0   0.7198443334   0.7934698586  -0.5415202257
!H           0.0  -0.8423187140   0.2678616027  -0.4379917737
!H           0.0   0.6958389244  -1.1219336213   2.5438446749
!H           0.0   1.0046510221  -2.2662677314   1.3938576730
!O           8.0   0.0772129482   0.1927352660  -0.1163047221
!O           8.0   0.7117952232  -1.3561685406   1.5954016236
!
 $CONTRL SCFTYP=RHF RUNTYP=energy ICHARG=1 $END 
 $SYSTEM TIMLIM=200 MEMORY=5000000  $END
 $SCF SOSCF=.F. DIIS=.T. ETHRSH=1.5 $END
 $NEO NEOSCF=RONHF BASNUC=DZSNB NUNIQN=5 IUNIQN(1)=1,2,3,4,5 NUMULT=6
      NUCOPT=.T. $END
 $STATPT NSTEP=60 OPTTOL=0.000001 $END
 $BASIS GBASIS=N31 NGAUSS=6 $END
 $GUESS GUESS=MOREAD NORB=28 $END
 $NMOGES GUESS=MOREAD NORB=10 $END
 $DATA
H5O2+ NEO-HF GRADIENT TEST (OPTIMIZING QM H POSITIONS)
 C1
 H           1.0    .3687020457   -.5260861653    .6358149829
 H           1.0    .7544599900    .5613061817   -.6755934077
 H           1.0   -.7453410886    .0563485596   -.5768211980
 H           1.0    .6959870639  -1.1269564809   2.5158591046
 H           1.0   1.0048958177  -2.2510858205   1.4844206167
 O           8.0    .0772129482    .1927352660   -.1163047221
 O           8.0    .7117952232  -1.3561685406   1.5954016236
 $END
--- CLOSED SHELL ORBITALS --- GENERATED AT Mon Apr 30 04:21:13 2007
H5O2+ NEO-HF GRADIENT TEST (OPTIMIZING QM H POSITIONS)                          
E(RHF)=     -152.1288836505, E(NUC)=   14.1461428185,    8 ITERS
 $VEC   
 1  1 3.67669673E-04 3.60251146E-03 1.61655144E-04 1.40008184E-03 1.61796908E-04
 1  2 1.40023057E-03 7.65995423E-05-3.06887656E-04 6.22939579E-05-3.07531491E-04
 1  3 9.95711044E-01 2.30184717E-02 1.05015929E-04-4.88763241E-04-9.01911185E-04
 1  4-9.97844561E-03-3.26632072E-04 9.87041354E-04 8.11566119E-05-1.70857226E-06
 1  5 3.47184041E-04-2.54047987E-05 6.16201940E-05-6.96285760E-05-1.32100315E-03
 1  6 2.72408148E-04-6.60311453E-04 7.54167307E-04
 2  1 3.34849524E-04 2.84150060E-03 9.37339083E-05-3.13892149E-04 9.39328148E-05
 2  2-3.13916551E-04 6.90559795E-05 1.58695435E-03 5.76011705E-05 1.60832026E-03
 2  3 5.63796701E-05 3.56224489E-04 1.67205167E-05-3.79852678E-05 6.04828856E-05
 2  4-1.47847640E-03-2.59364778E-04 6.29270101E-04-7.25444424E-04 9.95726160E-01
 2  5 2.26703163E-02 2.61188726E-04-6.30619173E-04 7.51885237E-04-9.11687252E-03
 2  6-4.79341666E-05 1.14377946E-04-1.54617880E-04
 3  1 7.51979217E-02-2.46581589E-02 1.09008501E-01-1.48756881E-02 1.09015610E-01
 3  2-1.48778162E-02 1.95274712E-02-3.25685996E-04 1.96119808E-02-4.63390062E-04
 3  3-2.13224891E-01 4.68525532E-01 4.45372832E-03-2.36001571E-02-5.29002555E-02
 3  4 5.00373342E-01 6.47055270E-03-2.34952940E-02-2.17764232E-02-4.29557943E-02
 3  5 9.40040511E-02-4.06311938E-04 1.01063732E-03-8.76821069E-04 1.01559894E-01
 3  6-1.00218097E-03 2.44237885E-03-2.63398876E-03
 4  1 2.26279209E-02 2.85320081E-03-2.83079777E-02 4.63799039E-03-2.83101148E-02
 4  2 4.63934461E-03 1.19451434E-01-1.43501452E-02 1.19928751E-01-1.41372206E-02
 4  3 4.68529096E-02-1.03343811E-01 3.61041207E-03-5.61934783E-03 2.60521823E-02
 4  4-1.14551316E-01 7.12112044E-04 2.37011911E-04 1.19832957E-02-2.13008236E-01
 4  5 4.67274433E-01 1.90373934E-02-4.58045651E-02 5.53307238E-02 4.95190769E-01
 4  6 7.23342340E-03-1.75756670E-02 2.03089186E-02
 5  1 2.03204475E-01 1.75054551E-02-1.04783884E-01-1.60960699E-02-1.04805400E-01
 5  2-1.61032663E-02-5.57275283E-02-4.33824109E-03-7.02635910E-02-9.04352194E-03
 5  3-5.86186524E-03 1.01520524E-02 1.08251634E-01-2.48078944E-01 3.75277929E-01
 5  4 4.31762998E-02 7.42697111E-02-1.71288018E-01 2.52085496E-01-7.60782768E-04
 5  5 1.36713440E-03-6.93118823E-02 1.70571385E-01-1.80007203E-01 1.76759997E-02
 5  6-4.74194726E-02 1.15840053E-01-1.27420369E-01
 6  1-9.59125678E-06-3.57220645E-06 2.19613939E-01 5.17714138E-02-2.19608054E-01
 6  2-5.17717799E-02 1.65152309E-05 4.87540216E-06-1.88394434E-05-5.86476985E-06
 6  3-3.39348494E-06 7.90561153E-06 5.13938268E-01 1.73047348E-01-3.38565736E-02
 6  4 1.39602883E-05 3.12684590E-01 1.05288185E-01-2.06039750E-02-6.29354187E-07
 6  5 1.36170431E-06 1.35654075E-02 4.59670315E-03-8.77186416E-04 3.03773780E-06
 6  6 1.09117245E-02 3.69204614E-03-7.10364626E-04
 7  1-6.56540533E-03-3.36367043E-03 2.35830081E-03 3.06195650E-04 2.40624391E-03
 7  2 3.17052690E-04 2.26006301E-01 6.69271341E-02-2.20293468E-01-6.76399052E-02
 7  3-1.03240073E-03 3.20487090E-03-9.62441849E-03 2.94263567E-02 5.15872581E-03
 7  4 1.96177475E-03-7.24119988E-03 2.25632080E-02 5.87270828E-03 8.03997510E-05
 7  5-2.08784615E-04-1.02139045E-01 3.76133257E-01 3.63484401E-01 3.42426434E-04
 7  6-6.19399887E-02 2.28628896E-01 2.23100971E-01
 8  1-7.23914579E-03-1.37672666E-02-6.36195057E-02-2.79228377E-02-6.36385572E-02
 8  2-2.79303831E-02 5.69092388E-02 1.98044105E-02 8.75076752E-02 2.97319227E-02
 8  3-4.35955560E-02 1.09320622E-01-4.63555477E-02 2.24538456E-01 4.43848633E-01
 8  4 1.57771311E-01-3.43515039E-02 1.67541198E-01 3.34899219E-01 3.38037901E-02
 8  5-7.27187151E-02 9.46260421E-02-2.34117054E-01 2.41408289E-01-1.41997107E-01
 8  6 7.35545223E-02-1.78867396E-01 2.03313246E-01
 9  1-1.54779613E-02 2.59699448E-02 2.38126683E-02 1.07673899E-02 2.38306812E-02
 9  2 1.07738396E-02-8.38420750E-02-3.19456031E-02-6.25216849E-02-2.47694610E-02
 9  3 4.18721717E-03 3.60727969E-03-1.61740235E-01 4.94532965E-01 7.25006511E-02
 9  4-6.12831372E-02-1.27268030E-01 3.87644060E-01 4.93033350E-02-3.77220123E-02
 9  5 8.27297822E-02-8.81372593E-02 2.06746047E-01-2.80464009E-01 1.53684116E-01
 9  6-7.34511924E-02 1.75162857E-01-2.19113490E-01
10  1-1.54169561E-05-1.72943256E-05-1.50316345E-02-2.80264326E-03 1.49946943E-02
10  2 2.79193569E-03-1.19392327E-05-4.92599773E-06-6.14103908E-06-4.01295004E-06
10  3-1.13514168E-05 2.59094493E-05-2.20624124E-02-7.40044581E-03 1.55759349E-03
10  4 5.04213061E-05-8.64007306E-04-2.82160880E-04 1.36484519E-04-1.41863739E-05
10  5 4.34850553E-05 6.08949950E-01 2.04518586E-01-4.05286577E-02 3.18489795E-05
10  6 4.79815104E-01 1.61147134E-01-3.19272614E-02
11  1-5.20152975E-02-2.22405223E-01-7.48822003E-02-8.28242012E-01-7.48649247E-02
11  2-8.28253152E-01-3.60596876E-02-3.80347707E-01-3.66647284E-02-4.12665900E-01
11  3-9.04385946E-02 1.56805420E-01-4.83491075E-03-9.04773930E-03-1.19656874E-01
11  4 1.10239642E+00-2.59945925E-02 2.53000291E-02-2.65506677E-01-5.34146150E-02
11  5 9.79274956E-02 2.61030240E-03-7.27138652E-03 3.05264174E-03 5.80349804E-01
11  6 2.08223990E-02-5.19240516E-02 5.15840858E-02
12  1-1.49070198E-02-1.49292111E-01 4.09277371E-02 4.93054429E-01 4.09063835E-02
12  2 4.92954336E-01-6.83121272E-02-8.55119039E-01-6.51646376E-02-8.92314047E-01
12  3 3.16666348E-02-4.01816611E-02 2.77234919E-02-5.62518799E-02 1.33572745E-01
12  4-4.86111814E-01 5.10429354E-02-1.02530832E-01 2.51539620E-01-7.99087951E-02
12  5 1.18496343E-01 4.59915912E-02-1.11946435E-01 1.26673748E-01 1.07779000E+00
12  6 9.32817408E-02-2.25922536E-01 2.62423618E-01
13  1-7.70371806E-06-2.38591815E-05-8.14889642E-02-1.34815640E+00 8.14844825E-02
13  2 1.34823619E+00-1.23476978E-05-2.70106041E-04 9.55926872E-06 1.94062120E-04
13  3 7.22205261E-07 2.70273019E-06 3.10368330E-01 1.04489436E-01-2.04290621E-02
13  4-4.44057989E-05 7.62858492E-01 2.56827039E-01-5.02129203E-02-4.21370979E-06
13  5 8.52526100E-06 3.15126842E-03 1.09367891E-03-1.69777872E-04 5.12819886E-05
13  6 2.46664799E-03 9.35964588E-04-6.47571014E-05
14  1-6.66443807E-04 2.37270328E-02-1.04205304E-03 1.06432834E-03-1.01838321E-03
14  2 1.54523465E-03 7.10961278E-02 1.38457989E+00-6.85890504E-02-1.36006676E+00
14  3 8.15032381E-04-2.08772706E-03-5.77886083E-04 2.27313307E-03 1.80674587E-03
14  4-1.09190161E-02-1.27698369E-03 3.05306026E-03-5.94686472E-03 1.84111455E-03
14  5-3.41594490E-03 6.39100450E-02-2.33144206E-01-2.16313258E-01-2.21328356E-02
14  6 1.62505800E-01-5.90980946E-01-5.40718261E-01
15  1 1.29149271E-01 2.65069064E+00-3.86781727E-02-5.06152854E-01-3.88310393E-02
15  2-5.06192199E-01-1.54433456E-02-4.77217173E-01-2.88721155E-02-4.57558064E-01
15  3 4.78616260E-02-1.08345508E-01-7.71998385E-02 1.83883340E-01-2.32940474E-01
15  4-6.27753443E-01-2.17921515E-01 5.12685391E-01-6.86908525E-01 4.18265470E-02
15  5-1.03610683E-01 7.10331587E-02-1.68028831E-01 2.17465466E-01-3.65132289E-01
15  6 2.11946377E-01-5.13591930E-01 5.90212439E-01
16  1 5.10993542E-02-5.18733967E-02 1.47524347E-01 3.13043204E-02 1.51294358E-01
16  2 3.07590405E-02-5.54865523E-01 6.94383844E-02 5.66041038E-01-7.37060534E-02
16  3 1.98672502E-02-7.41893848E-02 1.47299433E-01-5.28999017E-01-4.60834201E-01
16  4-8.97448105E-02-1.39408494E-01 5.36341739E-01 5.85543761E-01 9.58734898E-04
16  5-6.64014895E-03 3.06194199E-02-1.15192774E-01-1.03609223E-01 1.40230884E-02
16  6-1.50915848E-01 5.52132062E-01 5.01138233E-01
17  1-1.11504855E+00 1.63701716E+00-1.86248608E-01-2.99187613E-02-1.99643462E-01
17  2-2.77729445E-02-2.59785972E-01-4.50992680E-02-3.47316625E-01-1.28322469E-02
17  3-3.87413166E-02 2.52764295E-01 7.66166811E-02-2.14665477E-01 4.36929061E-02
17  4-4.63535043E-01-6.98648046E-02 1.64041034E-01-8.49784034E-02-3.35736390E-02
17  5 2.30722696E-01-5.37826394E-02 1.47708533E-01-1.54858834E-01-3.55974022E-01
17  6 1.58562038E-01-4.10454169E-01 4.03615073E-01
18  1-1.08968620E-02 1.55962987E-02-7.03586181E-01 1.19517681E-01 6.99030628E-01
18  2-1.20092014E-01-1.52050048E-03-5.09370621E-04-4.15720032E-03 6.77722746E-05
18  3-4.21471487E-04 2.55556301E-03-1.33567799E-01-4.54886984E-02 1.03222279E-02
18  4-4.10318284E-03 8.39877567E-01 2.82691267E-01-5.75048959E-02-3.04353728E-04
18  5 2.08708445E-03-5.97306800E-01-1.99080940E-01 3.86358813E-02-3.39400943E-03
18  6 6.02982043E-01 1.97446308E-01-3.72614838E-02
19  1-3.68107836E-01 1.63728733E-01 7.13728796E-01-3.53307552E-01 7.13829121E-01
19  2-3.53245005E-01-5.73824041E-01 2.09319180E-01 3.20395634E-01-1.32550653E-01
19  3 3.71205352E-02-1.71119049E-01-1.04419376E-01 3.69918786E-01 3.06338127E-01
19  4 5.45369593E-03 2.19346369E-01-6.21300047E-01 1.52211189E-01-1.09264066E-02
19  5 4.72341000E-02-5.92968138E-03 1.95830746E-02 1.06560552E-03-1.88995987E-02
19  6-5.77483357E-02 2.37876126E-01 3.42693168E-01
20  1 1.99752771E-05 1.79116527E-04 7.31285555E-01-4.97890575E-01-7.29456470E-01
20  2 4.96902580E-01-3.81554533E-05 1.56767016E-05-1.55168823E-04 6.21613733E-05
20  3 7.52451190E-05-4.28657732E-04-2.43561594E-01-8.23768967E-02 1.59288306E-02
20  4 1.38782531E-04-2.77401922E-01-9.30686879E-02 1.88629800E-02 3.72468215E-07
20  5-9.09993037E-06-6.33567168E-01-2.12800736E-01 4.21600933E-02-2.65848549E-05
20  6 7.15917901E-01 2.40327506E-01-4.75850753E-02
21  1 8.02026533E-02-1.57412970E-01-6.41538984E-01 3.46307403E-01-6.43415726E-01
21  2 3.47658786E-01-5.76374839E-01 3.29628458E-01 7.71822759E-01-4.06209230E-01
21  3-5.02877048E-02 2.83661371E-01-1.10921600E-01 3.39490741E-01 5.75364004E-02
21  4-7.88565174E-02 7.85016207E-02-3.15910653E-01-4.18242263E-01 4.52627392E-03
21  5-1.37438056E-02-4.28922438E-02 1.38589275E-01 5.76208256E-02 1.95597460E-02
21  6-9.14325198E-02 3.25126820E-01 2.63880817E-01
22  1-4.16114592E-01 4.79195055E-01 9.57885802E-02-2.29268401E-02 9.58290321E-02
22  2-2.29853499E-02 9.42201502E-01-6.41119698E-01 8.28861210E-01-5.52331688E-01
22  3 1.30321601E-03 2.39918014E-03-1.77535520E-02 3.68549427E-02-8.13973413E-02
22  4-1.47426374E-01 5.41471085E-02-1.17377799E-01 2.22236627E-01 6.11679875E-02
22  5-3.34607283E-01-1.15907182E-01 2.72567915E-01-3.65972480E-01 1.20995382E-01
22  6 3.02672040E-02-7.68729996E-02 6.55259462E-02
23  1-4.07343677E-04-1.32611554E-03 7.89617724E-02-9.19259947E-01-7.92888647E-02
23  2 9.20683556E-01 7.71344341E-04-1.24237162E-03-7.71161086E-04 1.86328094E-03
23  3-4.83592858E-05 5.01911985E-04-9.32945825E-01-3.13497715E-01 6.09041245E-02
23  4-4.58077809E-04 1.47865485E+00 4.96670436E-01-9.62582264E-02-1.82985287E-05
23  5 1.72514918E-04 2.63869123E-01 8.71927720E-02-1.82271631E-02-7.74340791E-05
23  6-3.22287608E-01-1.06369629E-01 2.18472954E-02
24  1 1.15817076E-01 1.13676636E+00 1.44302283E-02-5.92525086E-01 1.47638905E-02
24  2-5.89734164E-01-1.35771634E-01 4.30584181E-01 2.82640837E-01-8.31362006E-01
24  3 2.63695756E-02-3.74024838E-01 1.87134368E-01-4.51608619E-01 5.58574409E-01
24  4 4.50591730E-01-3.53959360E-01 8.42361731E-01-1.11442945E+00 1.89839125E-02
24  5-1.40214692E-01-1.48404825E-01 5.12963756E-01 3.52557754E-01-4.22028591E-02
24  6 2.45365886E-01-7.93035521E-01-3.08797137E-01
25  1-1.07003972E-01-9.84867172E-01 1.46949335E-01 4.42380497E-01 1.47124774E-01
25  2 4.43346096E-01-5.09829961E-02 9.05067643E-01 2.01926200E-02-5.41004169E-01
25  3-9.74874094E-03 2.50342002E-01-9.64146090E-02 1.73889048E-01-5.66490998E-01
25  4-3.72894860E-01 2.39893287E-01-4.78744046E-01 1.17931064E+00-1.37063190E-02
25  5 1.29515039E-01-1.25977520E-01 4.96398240E-01 6.09327395E-01-1.71052029E-02
25  6 1.55392736E-01-6.84792368E-01-1.11637529E+00
26  1 4.97620143E-01 5.67269939E-01-1.33033581E-02-6.29281737E-02-1.27694742E-02
26  2-6.23736375E-02-4.06816584E-01-4.28002331E-01-4.61911654E-01-4.98894589E-01
26  3 2.60705698E-02-2.29675877E-01-5.07532328E-02 1.18539554E-01-1.58495154E-01
26  4 6.21180888E-03-7.37812194E-03 2.46721838E-02-1.50345549E-03-5.98649574E-03
26  5-3.37066359E-01-2.23348230E-01 5.47408076E-01-5.92812412E-01 9.24309605E-01
26  6 4.90098242E-01-1.20395951E+00 1.28718581E+00
27  1 4.08528342E-02 1.51948671E-01 2.22807368E-01 3.09823301E-01 2.22740148E-01
27  2 3.09833625E-01-2.26240984E-01-4.10997647E-01-2.23581530E-01-4.19068749E-01
27  3-4.11843257E-02 1.15826297E+00 3.92614060E-02-1.01368980E-01 7.74987967E-02
27  4-1.81459950E+00-3.94790189E-02 1.35284733E-01 9.32344601E-02 5.14899442E-02
27  5-1.27403309E+00 1.78331170E-02-4.21334369E-02 5.52346421E-02 1.91492621E+00
27  6 5.99511737E-02-1.44973308E-01 1.69875991E-01
28  1-5.71043329E-01-2.70745556E+00-3.15326384E-01 5.58024434E-02-3.15714271E-01
28  2 5.56863697E-02-1.99669461E-01 2.47037684E-02-1.92430803E-01 9.67877369E-03
28  3 3.04749151E-03-1.34823734E+00-6.17722316E-02 1.49272758E-01-1.76875877E-01
28  4 2.98566039E+00 3.14969526E-01-7.97679360E-01 7.12703905E-01 1.54815789E-02
28  5-1.21733083E+00 7.50453964E-02-1.78698448E-01 2.23419448E-01 2.39252839E+00
28  6-2.57735311E-01 6.19299794E-01-7.39666618E-01
 $END   
--- NUC-HF ORBITALS --- GENERATED AT Mon Apr 30 04:21:13 2007
H5O2+ NEO-HF GRADIENT TEST (OPTIMIZING QM H POSITIONS)                          
E(RHF)=     -152.1288836505, E(NUC)=   14.1461428185,    8 ITERS
 $VECPRO
 1  1 0.00000000E+00 0.00000000E+00 0.00000000E+00 0.00000000E+00 0.00000000E+00
 1  2 0.00000000E+00 4.24910178E-01 5.81390059E-01 0.00000000E+00 0.00000000E+00
 2  1 0.00000000E+00 0.00000000E+00 0.00000000E+00 0.00000000E+00 0.00000000E+00
 2  2 0.00000000E+00 0.00000000E+00 0.00000000E+00 4.32863388E-01 5.73467214E-01
 3  1 0.00000000E+00 0.00000000E+00 0.00000000E+00 0.00000000E+00 3.82045218E-01
 3  2 6.24035625E-01 0.00000000E+00 0.00000000E+00 0.00000000E+00 0.00000000E+00
 4  1 0.00000000E+00 0.00000000E+00 3.81941915E-01 6.24138286E-01 0.00000000E+00
 4  2 0.00000000E+00 0.00000000E+00 0.00000000E+00 0.00000000E+00 0.00000000E+00
 5  1-1.59358638E-01 1.15464011E+00 0.00000000E+00 0.00000000E+00 0.00000000E+00
 5  2 0.00000000E+00 0.00000000E+00 0.00000000E+00 0.00000000E+00 0.00000000E+00
 6  1 0.00000000E+00 0.00000000E+00 0.00000000E+00 0.00000000E+00 0.00000000E+00
 6  2 0.00000000E+00-4.42906564E+00 4.41125341E+00 0.00000000E+00 0.00000000E+00
 7  1 0.00000000E+00 0.00000000E+00 0.00000000E+00 0.00000000E+00 0.00000000E+00
 7  2 0.00000000E+00 0.00000000E+00 0.00000000E+00-4.42829543E+00 4.41229038E+00
 8  1 0.00000000E+00 0.00000000E+00 0.00000000E+00 0.00000000E+00-4.43296882E+00
 8  2 4.40542287E+00 0.00000000E+00 0.00000000E+00 0.00000000E+00 0.00000000E+00
 9  1 0.00000000E+00 0.00000000E+00-4.43297772E+00 4.40540832E+00 0.00000000E+00
 9  2 0.00000000E+00 0.00000000E+00 0.00000000E+00 0.00000000E+00 0.00000000E+00
10  1-4.44654652E+00 4.29697304E+00 0.00000000E+00 0.00000000E+00 0.00000000E+00
10  2 0.00000000E+00 0.00000000E+00 0.00000000E+00 0.00000000E+00 0.00000000E+00
 $END
