!Neo-Hartee-Fock energy gradient test on H5O2+
!Electronic basis set: 6-31G(d,p)
!Nuclear basis set: DZSPDN
!Results:
!
!FINAL RHF ENERGY IS     -152.1959432128 AFTER  15 ITERATIONS
!
!                        ----------------------
!                        GRADIENT OF THE ENERGY
!                        ----------------------
!
!     ATOM                 E'X               E'Y               E'Z 
!   1 H               -0.001899753       0.004460147      -0.005822642
!   2 H               -0.001405575      -0.001901052       0.001467949
!   3 H                0.002435199      -0.000614486       0.001220906
!   4 H                0.000360471      -0.001606522      -0.002717423
!   5 H               -0.000833661       0.002734592       0.001274524
!   6 O                0.001529928      -0.003553682       0.004990785
!   7 O               -0.000186609       0.000481003      -0.000414098
!
!                  MAXIMUM GRADIENT =    0.005822642
!                      RMS GRADIENT =    0.002518083
!
 $CONTRL SCFTYP=RHF RUNTYP=GRADIENT ICHARG=1 $END 
 $SYSTEM TIMLIM=200 MEMORY=5000000  $END
 $SCF SOSCF=.F. DIIS=.T. ETHRSH=1.5 $END
 $NEO NEOSCF=RONHF BASNUC=DZSPDN NUNIQN=5 IUNIQN(1)=1,2,3,4,5 NUMULT=6 $END
 $BASIS GBASIS=N31 NGAUSS=6 NPFUNC=1 NDFUNC=1 $END
 $GUESS GUESS=MOREAD NORB=55 $END
 $NMOGES GUESS=MOREAD NORB=100 $END
 $DATA
H5O2+ NEO-HF GRADIENT TEST
 C1
 H           1.0    .3687020457   -.5260861653    .6358149829
 H           1.0    .7544599900    .5613061817   -.6755934077
 H           1.0   -.7453410886    .0563485596   -.5768211980
 H           1.0    .6959870639  -1.1269564809   2.5158591046
 H           1.0   1.0048958177  -2.2510858205   1.4844206167
 O           8.0    .0772129482    .1927352660   -.1163047221
 O           8.0    .7117952232  -1.3561685406   1.5954016236
 $END
--- CLOSED SHELL ORBITALS --- GENERATED AT Mon Apr 30 03:27:16 2007
H5O2+ NEO-HF GRADIENT TEST                                                      
E(RHF)=     -152.1959432130, E(NUC)=   14.1461428185,   13 ITERS
 $VEC   
 1  1 3.28705805E-04-6.68855303E-04-4.11935633E-05 1.00737523E-04-1.10664165E-04
 1  2 2.08032324E-04-3.85754141E-04 9.62922763E-05 7.83888329E-05-9.55617210E-05
 1  3 2.07951164E-04-3.85775075E-04-1.34559775E-04 6.77630848E-07-8.03946578E-05
 1  4 9.75776729E-06 3.47360961E-05-1.42665385E-06 1.84529065E-06-1.21290278E-05
 1  5-2.68735467E-05 1.72996736E-05-4.75291890E-07 2.37490226E-06 4.82540894E-06
 1  6 9.94494147E-01 2.12491657E-02-5.72657860E-06-1.34086151E-04-7.71891971E-04
 1  7 5.42125952E-03 2.25361058E-05-2.64760654E-05 2.07584032E-04-4.29476431E-03
 1  8-4.33226480E-03-4.34779568E-03 2.48038970E-05-3.83430506E-05 9.99133828E-05
 1  9-1.75138530E-04-2.72207970E-05 8.13448955E-08 1.27146969E-06 7.58631794E-06
 1 10 1.87782855E-04 5.94161973E-07-1.26525853E-05-5.45168603E-05-6.47860205E-06
 1 11-2.20839325E-05-3.75982327E-05 9.30619917E-06-1.23530964E-05 2.88823332E-05
 2  1 1.24898878E-05-1.05874590E-03 6.85944587E-05-1.67879317E-04 1.82803106E-04
 2  2-7.46001168E-06 8.67079861E-05-3.32862739E-06-6.79800249E-06 7.69449387E-06
 2  3-7.56801927E-06 8.66916874E-05 7.63116973E-06-3.08629725E-06 6.94711540E-06
 2  4 1.96765555E-04-3.47638855E-04 7.75338078E-06 1.46129353E-05 1.90122208E-04
 2  5 1.99478381E-04-3.53772722E-04 6.21924708E-05-1.82762337E-04 1.20138940E-05
 2  6 1.58252965E-04-7.56290534E-05 4.59526928E-06-1.15086379E-05 1.06053125E-05
 2  7 5.13462852E-04 7.22223454E-05-1.74941751E-04 2.04909324E-04-5.03204466E-05
 2  8-3.62371535E-06-1.02270698E-05-2.44336200E-05 1.95917366E-05-4.72972567E-05
 2  9 9.94508030E-01 2.11698571E-02 2.24492769E-04-5.40490665E-04 6.50699563E-04
 2 10 5.52559586E-03-1.22578181E-04 2.95495034E-04-3.50046793E-04-4.27396315E-03
 2 11-4.29941262E-03-4.31123083E-03 1.42667865E-05-1.54914414E-05 3.63758781E-05
 3  1 7.56938450E-02-1.81432615E-02-2.66610268E-03 6.50981398E-03-7.27898763E-03
 3  2 1.09666975E-01 5.44067779E-03-1.33899111E-02-6.98837214E-03 9.98616795E-03
 3  3 1.09669726E-01 5.44077121E-03 1.59549897E-02 2.89317997E-03 8.05221845E-03
 3  4 2.58125260E-02 3.35000641E-03 8.06540437E-05-1.06879655E-03-4.18524747E-03
 3  5 2.57043397E-02 3.27874445E-03-1.30173239E-03 3.97987649E-03 5.20863623E-04
 3  6-2.06899903E-01 4.65637320E-01 3.16851967E-03-1.62371430E-02-3.48800563E-02
 3  7 4.29423303E-01 5.50771294E-03-1.77844663E-02-7.26363940E-03 9.87282259E-03
 3  8 5.11943280E-03 9.24274869E-03 1.53221604E-03 2.18376630E-03-6.70037930E-03
 3  9-5.28935390E-02 1.15822495E-01-8.56300603E-04 2.12859197E-03-2.01367951E-03
 3 10 1.14987311E-01-3.08916028E-03 7.47048388E-03-8.60478188E-03-5.81842999E-04
 3 11 2.90329679E-03 3.61900451E-03-1.71427408E-03 1.09135896E-03-2.15495100E-03
 4  1 1.83007236E-02-7.30452181E-03 3.86704589E-03-9.39526000E-03 1.06339746E-02
 4  2-3.42832144E-02 6.84609618E-04 4.13087973E-03 1.75411576E-03-2.67708618E-03
 4  3-3.42849417E-02 6.84025561E-04-4.63236691E-03-1.19650777E-03-2.09972451E-03
 4  4 1.17595869E-01 7.24329614E-03 5.87825816E-04-5.19161760E-03-1.73832242E-02
 4  5 1.17668651E-01 7.35459945E-03-5.48230830E-03 1.69182916E-02 2.98216876E-03
 4  6 5.66511390E-02-1.30041445E-01 4.10070218E-03-7.35606765E-03 2.46328564E-02
 4  7-1.14876723E-01 2.75028963E-03-5.25725319E-03 1.48861001E-02-4.10330147E-03
 4  8 3.40263475E-04-1.44958199E-03-2.06205924E-03 6.89889938E-04-1.30707602E-03
 4  9-2.07559016E-01 4.65527858E-01 1.30564960E-02-3.13515726E-02 3.82587894E-02
 4 10 4.33497420E-01 2.07278335E-03-5.07637736E-03 5.74270522E-03 7.68273317E-04
 4 11 1.17696946E-02 1.32847072E-02-5.00783538E-03 1.76837093E-03-2.04073144E-03
 5  1 1.96614896E-01 4.06799972E-02-6.33084216E-04 2.11066295E-03 9.28722611E-04
 5  2-1.00653392E-01-2.84010175E-02 1.22893189E-02-7.66223969E-04 6.22671059E-05
 5  3-1.00711564E-01-2.84233690E-02-9.23301335E-03-8.01297098E-03 1.47699202E-03
 5  4-6.18888289E-02-1.42062021E-02-1.80056431E-03 6.19875460E-03 4.25452812E-03
 5  5-7.83596220E-02-2.11580959E-02 1.82328890E-03-6.47814122E-03-5.26336572E-03
 5  6-3.57059271E-03 8.12652993E-03 1.03373605E-01-2.36877391E-01 3.57580271E-01
 5  7 3.92428752E-02 6.80565382E-02-1.56776396E-01 2.31295441E-01-5.95716018E-03
 5  8 1.25719275E-02-4.88214929E-03-8.84001700E-03 3.17600126E-03-8.58098762E-03
 5  9-2.08942008E-07-1.47754219E-03-7.51547506E-02 1.85356203E-01-1.93214468E-01
 5 10 2.92504511E-02-5.02987092E-02 1.23297619E-01-1.33080127E-01 9.22891665E-04
 5 11-1.14462996E-03 3.16472294E-04 5.15517773E-04 1.49371529E-03-4.58215115E-03
 6  1-3.12821769E-05-3.26471234E-06 8.10042905E-03 2.72549317E-03-5.31542602E-04
 6  2 2.08700820E-01 7.69369274E-02-6.88745400E-03-5.24628764E-03 1.52940601E-02
 6  3-2.08670526E-01-7.69298582E-02-1.03928258E-02-5.73372798E-04-1.41535012E-02
 6  4 2.70445081E-05 1.03790774E-05 4.00289251E-04 1.34484284E-04-2.88824131E-05
 6  5-1.51377851E-05-9.17443022E-06 3.86534055E-04 1.28066306E-04-2.44731409E-05
 6  6-2.70574825E-09 1.09337408E-06 5.02881253E-01 1.69352906E-01-3.31699850E-02
 6  7-2.77032375E-06 3.03602940E-01 1.02247049E-01-2.00293502E-02-1.70269563E-03
 6  8-1.06659330E-03 2.77017812E-03-2.15638719E-03-2.42112762E-02-8.05175447E-03
 6  9-1.31984839E-07 2.01553444E-06 1.58261521E-02 5.34161309E-03-9.98169696E-04
 6 10-4.14618933E-06 1.15265743E-02 3.88304644E-03-7.29238246E-04-2.31482109E-04
 6 11 1.87746284E-04 4.46279452E-05 2.79751186E-04-3.63748016E-04-1.44997038E-04
 7  1-7.88523415E-03-3.72245072E-03-7.56442319E-04 2.89528512E-03 3.27653499E-03
 7  2 2.01417614E-03 2.29177421E-04-3.92996573E-04 7.93827114E-04 1.38395021E-04
 7  3 2.06768851E-03 2.46654612E-04-1.49600383E-04 8.75465663E-04 1.25529282E-04
 7  4 2.12556037E-01 8.77168003E-02-2.31177229E-03 3.60853819E-03-1.65573780E-02
 7  5-2.05115076E-01-8.62791737E-02 5.32963876E-03-1.45097789E-02 6.89941921E-03
 7  6-9.10557394E-04 2.57713629E-03-1.03482719E-02 3.13687503E-02 4.26958103E-03
 7  7 2.61057535E-03-7.44152401E-03 2.28052543E-02 4.21058987E-03 5.65052890E-04
 7  8-1.11784624E-03 7.23320494E-04 7.19616686E-04 7.31909611E-05-2.15607436E-04
 7  9 3.17815730E-04-7.36336819E-04-9.96007244E-02 3.67723816E-01 3.59207578E-01
 7 10-1.60028469E-03-6.10599373E-02 2.25849058E-01 2.22311049E-01-2.42890598E-03
 7 11-1.97966527E-02 2.22061545E-02 7.84140157E-03 5.02239676E-04 3.60578907E-03
 8  1-3.03730046E-03-1.26704081E-02-1.02446005E-02 2.70745373E-02-1.70347020E-02
 8  2-7.63875468E-02-4.26351159E-02 6.56057997E-03 8.97244860E-03 5.68288693E-03
 8  3-7.64076899E-02-4.26409836E-02-9.91456638E-03 3.42392866E-03 6.76842269E-03
 8  4 7.05373027E-02 3.52335211E-02 2.77249052E-03-8.75674408E-03-2.50603583E-03
 8  5 9.56085799E-02 4.39195487E-02-1.13063356E-03 4.95748596E-03 8.04856152E-03
 8  6-4.18529539E-02 1.03052495E-01-1.98553324E-02 1.44938675E-01 4.39222474E-01
 8  7 1.72609202E-01-1.69218394E-02 1.11043671E-01 3.10604764E-01 2.42750060E-03
 8  8 1.96653051E-03-1.08168992E-02-8.51745080E-05 2.65898603E-04-3.77399010E-03
 8  9 3.52633532E-02-8.02146899E-02 1.03819464E-01-2.55517027E-01 2.71767060E-01
 8 10-1.61129543E-01 7.47942001E-02-1.82291618E-01 2.04848727E-01-2.81129873E-03
 8 11 4.17500507E-03 1.45164568E-03-3.05904265E-03 3.99306035E-04-2.48790319E-05
 9  1-2.77098382E-02 4.97209251E-03 6.04819704E-03-1.24853814E-02 2.79730563E-02
 9  2 9.71147812E-03 8.16916155E-03-4.38023599E-03 1.55862596E-02 4.54670702E-03
 9  3 9.72271831E-03 8.17165357E-03-5.39615358E-03 1.52454691E-02 4.61389215E-03
 9  4-7.52526133E-02-3.71955725E-02-1.88672867E-03 6.17184358E-03 2.81879400E-03
 9  5-5.11190991E-02-2.81821349E-02 2.21365289E-04-2.07878537E-03-7.14429521E-03
 9  6 3.32873023E-04 7.89297981E-03-1.68738183E-01 5.25626717E-01 1.25119621E-01
 9  7-2.38915921E-02-1.24977079E-01 3.90259973E-01 9.74976027E-02 7.19094219E-03
 9  8-2.09749381E-03 5.30606267E-03 2.97133348E-03 4.31380261E-03-1.33782122E-02
 9  9-3.06355564E-02 6.95988680E-02-7.22864124E-02 1.67811966E-01-2.38718364E-01
 9 10 1.38528603E-01-5.59524028E-02 1.32466224E-01-1.71675296E-01 2.47019034E-03
 9 11-9.64311832E-04-5.54176444E-03 1.56879248E-03-8.77623293E-04 6.80124304E-04
10  1-1.72915227E-05-3.12184624E-05 7.94146912E-03 2.68043725E-03-5.39094214E-04
10  2-1.45396056E-02-2.77713821E-03 4.45088194E-04 1.50953154E-04-9.07942178E-04
10  3 1.44957697E-02 2.75907405E-03 5.44448694E-04 1.86213446E-04 8.46998240E-04
10  4-1.48504933E-05-6.88930065E-06 1.90389043E-02 6.39471129E-03-1.26472305E-03
10  5-9.48485257E-06-5.81125945E-06 1.91764161E-02 6.43848686E-03-1.27635704E-03
10  6-1.28761625E-05 2.62337192E-05-2.29108423E-02-7.68541621E-03 1.62334277E-03
10  7 6.83440987E-05-4.73984565E-03-1.58582898E-03 3.96719705E-04 7.74390479E-04
10  8-6.04267724E-04-1.79879236E-04-8.83934918E-04 1.47668927E-03 5.76322847E-04
10  9-1.20768120E-05 3.18034290E-05 6.08231460E-01 2.04268251E-01-4.04697550E-02
10 10 4.41528471E-05 4.68123415E-01 1.57219208E-01-3.11474269E-02 4.08506510E-03
10 11-3.29615117E-03-7.92020814E-04-4.88147749E-03 6.73890871E-03 2.69412297E-03
11  1-5.47144476E-02-3.24850227E-01-1.20652340E-03 2.73079906E-03-4.32430373E-03
11  2-6.95566483E-02-8.24333751E-01-6.11168035E-03-3.84861978E-03 4.17634199E-03
11  3-6.95489415E-02-8.24363682E-01 7.63638220E-03 7.79047113E-04 3.27192638E-03
11  4-3.70989818E-02-4.24610205E-01-3.22423202E-04 2.75482890E-04-3.44743469E-03
11  5-3.85769285E-02-4.53688203E-01-1.10342956E-03 3.12533625E-03-8.01151474E-04
11  6-1.02613258E-01 1.11799110E-01-3.87765057E-03-9.99177938E-03-1.09940401E-01
11  7 1.29166750E+00-1.58348700E-02-1.96064524E-03-2.50358307E-01-4.92851946E-02
11  8-4.86364391E-02-4.53921439E-02-5.17228914E-05-6.89896375E-04 2.92504985E-03
11  9-6.44259762E-02 7.94587413E-02 3.45170394E-03-9.03255973E-03 6.82241961E-03
11 10 7.45597284E-01 2.00283675E-02-4.98906609E-02 5.01740951E-02-2.61854350E-02
11 11-2.54226493E-02-2.50003116E-02-2.73571343E-04-1.54181274E-04 7.40105870E-04
12  1-1.44935972E-02-1.64016979E-01-1.67812679E-03 4.29625998E-03-3.46650742E-03
12  2 4.02988092E-02 5.43865035E-01 5.57973310E-03 1.27097562E-03-1.60444633E-03
12  3 4.02818076E-02 5.43790932E-01-5.36067841E-03-2.41185919E-03-8.84538888E-04
12  4-6.33725356E-02-8.74617939E-01 9.39808787E-04-4.06514115E-03-6.40617463E-03
12  5-6.07379269E-02-8.93170604E-01-2.02020225E-03 6.66060400E-03 3.25116530E-03
12  6 4.18033066E-02-2.53650393E-02 2.82749572E-02-5.71855959E-02 1.37126707E-01
12  7-6.16434503E-01 5.26414604E-02-1.03203998E-01 2.72226803E-01 3.02098119E-02
12  8 2.62038515E-02 2.00247300E-02 1.94532628E-03-1.51092463E-03 2.03520188E-03
12  9-9.13613502E-02 7.29382098E-02 4.45205888E-02-1.07730997E-01 1.25795986E-01
12 10 1.24567505E+00 9.21506706E-02-2.22013084E-01 2.65299240E-01-5.19487227E-02
12 11-4.89061795E-02-4.81818048E-02-1.71000181E-03 1.84186562E-03-4.49068050E-03
13  1-3.63259448E-06-3.09439038E-05 3.46778476E-03 1.16877125E-03-2.28796613E-04
13  2-8.05628741E-02-1.35210857E+00 2.01610360E-03 8.63738566E-04 1.81600927E-03
13  3 8.05625074E-02 1.35216971E+00 1.89719116E-03 4.54914628E-04-2.07470009E-03
13  4-1.57791909E-05-3.11365793E-04 1.10517389E-04 3.70082442E-05-5.58543490E-06
13  5 1.32428388E-05 2.47835667E-04 4.75414028E-05 1.77379423E-05-3.36835807E-06
13  6 1.02058195E-06 3.17850345E-06 3.10718991E-01 1.04608460E-01-2.04552656E-02
13  7-3.88846070E-05 7.72773983E-01 2.60166687E-01-5.08682270E-02 1.96344695E-03
13  8-2.61630223E-03 6.56938238E-04-4.10724823E-03-5.81881073E-03-1.63756323E-03
13  9-3.71239707E-06 6.70122310E-06 2.53062582E-03 8.94684702E-04-1.22259766E-04
13 10 4.76271410E-05 1.98973316E-03 8.03058491E-04-1.50432453E-05-1.03978037E-03
13 11 9.62816808E-04 7.65313844E-05 1.45204722E-03-6.03128800E-04-3.26636201E-04
14  1-1.24737433E-03 2.23792655E-02 7.70853538E-04-2.95124482E-03-3.32522599E-03
14  2-7.52269735E-04 3.30918218E-03 1.21723850E-04 3.16898699E-04 2.78416433E-04
14  3-7.23649890E-04 3.88185040E-03-2.54825103E-04 1.91202491E-04 3.00140858E-04
14  4 7.45726092E-02 1.38498187E+00 5.91877721E-04-2.35363152E-03-2.97101661E-03
14  5-7.33821708E-02-1.37184801E+00 1.02626500E-03-3.53352213E-03-2.42063463E-03
14  6 8.06360682E-04-1.61466786E-03-4.18421750E-04 2.03494566E-03 2.84013585E-03
14  7-1.28695526E-02-1.14449379E-03 3.18389286E-03-3.73829271E-03 4.08725609E-04
14  8 2.03612129E-03-2.75717466E-03-6.61415353E-04-4.17247267E-04 5.54087048E-04
14  9 1.30862188E-03-1.24895296E-03 6.42020165E-02-2.34004626E-01-2.16265817E-01
14 10-1.70636534E-02 1.65851762E-01-6.02579655E-01-5.48970718E-01 1.65766667E-03
14 11 8.25712149E-03-7.79741686E-03-2.94049371E-03-3.44693448E-04-9.34694199E-04
15  1 1.23902317E-01 2.65280484E+00 8.44908242E-04-3.02297579E-03-2.50550973E-03
15  2-3.61864472E-02-4.99568288E-01-5.53647082E-04-6.28883659E-05 1.44381584E-04
15  3-3.63171055E-02-4.99577701E-01 4.94929028E-04 2.85247515E-04 7.91905997E-05
15  4-1.72473716E-02-4.78058494E-01 3.32170247E-04-6.81648003E-04 1.46078126E-03
15  5-2.77626772E-02-4.61190245E-01 1.38114900E-03-3.57123391E-03 2.63327760E-03
15  6 5.03004954E-02-9.42638937E-02-7.60219144E-02 1.79790406E-01-2.35888785E-01
15  7-6.76087730E-01-2.20414928E-01 5.21041313E-01-6.82504837E-01 2.39573808E-03
15  8 1.26518274E-02 1.85955895E-02-4.73247283E-03 2.21887050E-03-2.64885596E-03
15  9 4.21177522E-02-1.04242082E-01 7.27685035E-02-1.72649134E-01 2.20261090E-01
15 10-3.64834288E-01 2.10752944E-01-5.10388162E-01 5.88469368E-01-5.23185727E-04
15 11 4.39578119E-03 8.71991180E-03-3.07359865E-03 4.39396908E-03-1.06732231E-02
16  1-9.62622151E-01 1.76211761E+00-2.68617426E-02 6.27550292E-02-8.50314881E-02
16  2-8.18522357E-02-8.45508104E-02 2.58748304E-02-4.17026505E-02 4.21541519E-02
16  3-8.29024292E-02-8.40829237E-02 9.72508251E-03-4.71789710E-02 4.33168208E-02
16  4-1.10772497E-01-3.93063703E-02-1.09071281E-02 2.59847178E-02-3.27882857E-02
16  5-2.32330154E-01 2.97285964E-02-1.38956251E-02 3.47231055E-02-3.36115240E-02
16  6-1.27513868E-02 2.59093332E-01 4.72320192E-02-1.23878740E-01 8.25225611E-02
16  7-7.46768900E-01-7.93010509E-02 1.96522530E-01-1.91533444E-01 1.07736407E-01
16  8 2.85216719E-02-3.09243607E-02 5.13055744E-02-7.80466112E-02 1.95534900E-01
16  9-1.16872210E-02 2.34735589E-01-3.99626512E-02 1.01406785E-01-9.23463474E-02
16 10-6.45133881E-01 1.18700015E-01-3.03083534E-01 2.56669674E-01 1.37164018E-01
16 11-5.29188077E-03-8.92359717E-03 7.19311512E-02-5.05270525E-02 1.11494839E-01
17  1-1.27674238E-03 1.49712680E-03 1.06785886E-01 3.63939520E-02-6.79369358E-03
17  2-6.51469035E-01 4.16812925E-01-2.80876473E-02-3.54877820E-02 7.92190962E-02
17  3 6.52698392E-01-4.17315748E-01-5.27056500E-02 7.96461683E-03-7.37897271E-02
17  4-3.23726911E-03 1.43764709E-03-2.13928176E-02-7.08878096E-03 1.03723119E-03
17  5 2.88454993E-03-1.40894344E-03-2.12870791E-02-7.37957020E-03 1.52058369E-03
17  6-8.55805640E-07-4.41268890E-04-2.47049087E-02-1.01628276E-02 1.22643795E-04
17  7 2.58675559E-04 4.53094299E-01 1.54180073E-01-2.78763901E-02 7.49635213E-02
17  8-4.82764803E-02-2.73955325E-02-6.72594170E-02 2.35809073E-01 8.59997497E-02
17  9-2.16013409E-05 7.43490625E-05-3.77132850E-01-1.27156075E-01 2.47886605E-02
17 10-2.97134922E-04 3.66843041E-01 1.25561834E-01-2.22880041E-02-1.98435688E-02
17 11 1.71347186E-02 2.59910463E-03 2.38532692E-02-3.15615141E-02-1.27550652E-02
18  1 7.67616282E-02-5.61740851E-02 1.95904829E-02-6.97497145E-02-6.71923525E-02
18  2-1.72336058E-01 6.33840153E-02-6.15694045E-03 2.24976271E-02-9.84532112E-04
18  3-1.65889269E-01 5.88922812E-02-9.39800401E-03 2.16782227E-02-1.59516754E-03
18  4 5.97794961E-01-2.98096160E-01 9.38269875E-03-1.56748748E-02 6.39863861E-02
18  5-5.69726603E-01 2.95726161E-01-2.13343834E-02 5.89145607E-02-2.13949928E-02
18  6-5.29279288E-03 1.27099779E-01-1.01986448E-01 3.64663640E-01 3.15524624E-01
18  7-1.41759615E-01 8.33301848E-02-3.24276958E-01-4.26314544E-01 2.09231890E-02
18  8 9.62420067E-02 2.18605283E-02-3.43023732E-02 4.73182184E-03-7.39610281E-03
18  9 1.47832438E-04-2.17017245E-02-1.46493484E-02 5.08226221E-02 7.27544004E-02
18 10 4.25711165E-02 1.03835994E-01-3.80703428E-01-3.96800745E-01-3.15182630E-02
18 11-1.84092458E-01 1.93256338E-01 6.84080808E-02 7.93652217E-03 2.27393377E-02
19  1-1.24392185E-01 2.05363444E-01 2.12813111E-03-1.82588716E-04 3.12941220E-02
19  2 6.69307781E-01-6.35411626E-01 1.68044413E-01 6.38054277E-02-4.29334618E-02
19  3 6.69498668E-01-6.35618171E-01-1.76200380E-01-5.20717258E-02-2.03148850E-02
19  4 3.59985517E-02-7.40867930E-02 7.33054612E-04 2.01864919E-04 1.20910875E-02
19  5-4.54490771E-02 4.84594124E-03-2.23709822E-03 6.15637698E-03-2.54300439E-03
19  6 3.90829568E-02-3.53394774E-01-4.93946770E-02 1.92960432E-01 2.36113601E-01
19  7 5.95587405E-01 8.41303695E-02-2.66413580E-01-8.48609905E-02 2.17374868E-01
19  8-1.85725826E-01-7.30204675E-02 1.73675731E-01-1.08699835E-02-4.46996279E-02
19  9 2.07272513E-03-3.72398070E-02 2.81598828E-03-9.17531844E-03-3.35469549E-03
19 10 2.96050094E-02 1.85843111E-02-4.73442361E-02 3.94289017E-02-9.21010826E-03
19 11-2.41115278E-02 9.18407258E-03 7.12218955E-03-1.33137314E-03 7.65605599E-03
20  1 1.94249881E-01-3.87984173E-01-5.28422048E-04 3.06798619E-03 7.98812100E-03
20  2 7.86649725E-03 1.72863281E-02-2.04828106E-03 1.55391725E-02-1.88295545E-02
20  3 7.60881936E-03 1.78263299E-02-9.88297944E-03 1.28803694E-02-1.82363658E-02
20  4-7.15711969E-01 7.50056559E-01 2.74872512E-02-1.17419078E-01-1.79723987E-01
20  5-6.12883847E-01 6.06056933E-01-4.58074320E-02 1.56782032E-01 1.02849994E-01
20  6 4.17812094E-03 3.69837488E-02-9.50036170E-03 4.33343689E-02 7.93841719E-02
20  7 1.10290959E-02 1.45714544E-02-5.85761836E-02-8.10052017E-02 9.29262888E-03
20  8 1.79881601E-02 4.34109910E-02-7.59498228E-03 1.79817883E-02-4.52391010E-02
20  9-4.23766499E-02 3.59864993E-01 6.11903007E-02-1.41188754E-01 2.10712932E-01
20 10-5.96161435E-01-4.72171526E-02 1.10356541E-01-1.56081519E-01 2.13010444E-01
20 11-6.97980894E-02-1.05120068E-01 1.07012428E-01 4.27729447E-02-2.06565027E-01
21  1 9.21404408E-02-8.21430172E-02-8.52714844E-04-5.10330781E-03-3.83547033E-02
21  2 1.42247941E-01-1.22698437E-01 8.83085155E-03 5.69540802E-03 1.59853552E-03
21  3 1.44458428E-01-1.28838420E-01-1.12304846E-02-8.31229334E-04 2.01542953E-03
21  4 3.26317051E-01-6.06013751E-01 1.30425373E-02-1.21250206E-02 1.34282171E-01
21  5-4.54382429E-01 7.66652091E-01-5.54536306E-02 1.63289034E-01-1.03011715E-02
21  6 3.34456902E-03-2.40034495E-01 1.64546817E-01-5.46193296E-01-3.21980463E-01
21  7 4.29322525E-01-1.86610750E-01 6.20364563E-01 3.81952424E-01-4.19580793E-02
21  8-9.42440222E-02-8.71434040E-02 2.04639803E-02 6.48697550E-03-2.78103229E-02
21  9-4.30383264E-03 3.28393806E-02 7.83923375E-02-2.62016740E-01-1.83395620E-01
21 10-5.59835860E-02-9.01056450E-02 2.98418098E-01 1.94323607E-01-4.85386776E-03
21 11-2.06496188E-01 2.14994971E-01 8.82040805E-02 1.28065502E-02 6.54204664E-03
22  1-1.93816321E-04 3.74150495E-04-8.62761073E-03-2.85363180E-03 7.05426400E-04
22  2-2.54934279E-01 8.15876514E-01-1.04878578E-01-6.48188866E-02 1.23407973E-01
22  3 2.53817442E-01-8.14935399E-01-1.36331434E-01-1.63924213E-02-1.07599374E-01
22  4-1.36119112E-03 2.51930833E-03 1.12640921E-02 3.80247507E-03-1.29217215E-03
22  5 1.33688369E-03-2.73973802E-03 1.21062851E-02 3.39900874E-03-7.33660276E-04
22  6-2.19855088E-06 1.02058803E-03 4.62400292E-01 1.57831421E-01-2.91813138E-02
22  7-1.87730223E-03-7.57088093E-01-2.57279156E-01 4.82547999E-02 4.50070540E-02
22  8-1.95235238E-02-2.45049631E-02-2.54844992E-02 2.16746165E-01 7.58845911E-02
22  9 5.90328279E-06 1.18271139E-04 6.56943375E-01 2.21846497E-01-4.30077445E-02
22 10-1.98339932E-04-7.13353169E-01-2.41164720E-01 4.66856336E-02 5.87166292E-03
22 11-4.14959964E-03-1.55650689E-03-7.63911785E-03 6.71330766E-03 2.82620196E-03
23  1-6.73586807E-02-7.01600074E-01 4.99738145E-02-1.14164512E-01 1.74256759E-01
23  2 5.46082540E-02 5.87410457E-01-4.25622090E-02-7.20313983E-02 9.46716819E-02
23  3 5.48087220E-02 5.88542698E-01 8.83825351E-02-2.79701301E-02 8.61604691E-02
23  4-6.14541674E-02-4.24002682E-01 1.59538018E-02-1.96506267E-02 1.40744367E-01
23  5-9.12141428E-02 4.89571087E-01-1.69185657E-02 6.18036706E-02 5.76028549E-02
23  6 3.09935866E-03 3.03155705E-01-1.90382832E-01 4.71137674E-01-4.74361871E-01
23  7-7.84531630E-01 3.68467297E-01-8.74358316E-01 1.10809618E+00 4.28006176E-02
23  8 8.49302773E-02 7.85113487E-02-1.65964985E-02-4.86698746E-03 2.33225233E-02
23  9 7.06863864E-03 1.68541576E-01 1.70217733E-02-1.27650226E-01-3.97132349E-01
23 10-1.50343113E-01-6.15410372E-02 3.17099935E-01 6.85867821E-01 2.84284741E-02
23 11 9.02258087E-03 1.76633319E-01 1.89324761E-03 3.68864170E-02-7.56661365E-02
24  1-2.65025073E-04 9.33770859E-04 5.56080767E-02 1.93330802E-02-3.97174123E-03
24  2-1.76739650E-01-7.69062113E-01 1.38428731E-01 6.39790096E-02-7.54461675E-02
24  3 1.76010891E-01 7.67754274E-01 1.56516201E-01 3.54847814E-02 5.54717005E-02
24  4 1.06691746E-04-1.78397818E-03-1.59268107E-02-5.05573207E-03 1.26147131E-03
24  5 5.09987765E-04 2.25459952E-03-1.78234558E-02-5.31371855E-03 1.06104007E-03
24  6 6.41648587E-06 3.86850459E-04-6.63640649E-01-2.23374386E-01 4.52814726E-02
24  7-2.98477730E-04 1.46160982E+00 4.92688569E-01-9.92059119E-02-1.27999373E-02
24  8 5.71920511E-03 7.50131881E-03 7.49312881E-03-6.13337602E-02-2.14391502E-02
24  9-3.08974943E-05-4.61191930E-04 4.98857515E-01 1.65348681E-01-3.33916162E-02
24 10 3.70312274E-04-5.75188904E-01-1.88951961E-01 3.90436592E-02-3.65772730E-02
24 11 2.96804800E-02 6.15162660E-03 4.49757576E-02-5.32235090E-02-2.13756058E-02
25  1-5.54583781E-02 2.07244303E-01-5.06703216E-02 1.45197936E-01-2.40552459E-02
25  2-8.93200906E-02-8.46944637E-02-4.95395976E-03 1.01384148E-02-6.95565588E-02
25  3-9.07806818E-02-8.95145403E-02-1.14045999E-02 8.06612411E-03-6.94780024E-02
25  4-4.68924161E-02-7.23815010E-01-2.39670510E-02 9.27022094E-02 1.06988537E-01
25  5 2.00899463E-01 7.99184157E-01-6.65281698E-02 1.96016794E-01-1.16513309E-02
25  6 5.92471277E-03 1.91821398E-01-5.11086929E-03 9.42383465E-02 3.67635387E-01
25  7-3.06117779E-01-4.97926004E-02 2.50585723E-03-6.60367526E-01 2.80966299E-02
25  8-6.62413423E-03 1.74601839E-01 1.52055740E-02 9.71065821E-03 3.80151247E-03
25  9-7.74626513E-03-1.35999142E-01 1.98403834E-01-6.44071229E-01-2.46359556E-01
25 10 1.50049032E-01-3.95254420E-01 1.30409107E+00 6.15625853E-01-3.69698628E-02
25 11-1.40313490E-01-2.32356492E-02 5.34541586E-02-3.44573047E-02 1.02266154E-01
26  1 7.93306226E-02 1.08366045E+00 1.30049521E-02-2.90529331E-02 4.78190334E-02
26  2-1.40016928E-01-5.11294087E-01 1.93559461E-02 6.05847664E-03-5.52037761E-02
26  3-1.39773519E-01-5.10941350E-01-2.53370135E-02-9.00688727E-03-5.22421591E-02
26  4-2.47312888E-01-6.86320538E-01 2.27837118E-02-3.68245951E-02 1.56670134E-01
26  5-1.49221486E-01-3.09311944E-01 2.91908231E-02-6.93164201E-02 8.88637883E-02
26  6-2.40103049E-02-5.54762667E-01 5.28595611E-02-9.19461763E-02 3.36107105E-01
26  7 1.18221289E+00-1.58949530E-01 3.13023702E-01-8.22123184E-01-1.97420645E-01
26  8-1.35998410E-01-1.10572361E-01-2.40991347E-02-5.06567101E-03 3.62164403E-02
26  9-7.44331208E-03-2.18035558E-01-1.44036481E-01 3.03659504E-01-6.31513215E-01
26 10 6.71469106E-01 2.96489775E-01-6.18356411E-01 1.33352262E+00-4.02943608E-02
26 11-3.51905227E-02 2.44829958E-02-1.24127568E-02 4.58613776E-02-1.20312934E-01
27  1 5.52447436E-02 1.67707598E-01-2.04759873E-02 5.38565572E-02-3.48523739E-02
27  2 1.42572300E-01 4.15021713E-01-5.76810477E-03 2.64386890E-02 1.39502414E-02
27  3 1.42627191E-01 4.15253483E-01-9.69989703E-03 2.51142290E-02 1.42088197E-02
27  4-1.61951159E-01-5.83693195E-01 7.74422949E-03-1.98758657E-02 1.62114599E-02
27  5-2.03889550E-01-7.03540465E-01 1.18710626E-02-3.33816372E-02 1.01050547E-02
27  6 5.48846839E-02 1.01926251E+00 2.88326352E-02-9.53625169E-02-4.83938215E-02
27  7-2.43760444E+00-3.16698511E-02 1.33016835E-01 1.95644005E-01 3.65852054E-01
27  8 2.45115465E-01 2.94200507E-01 4.51333954E-02 2.60688147E-02-9.62443317E-02
27  9-6.69894411E-02-1.28498865E+00-4.42964116E-02 1.19896580E-01-6.09754557E-02
27 10 3.05258570E+00 1.58296102E-01-4.12081426E-01 3.00160628E-01-2.79833130E-01
27 11-4.34664020E-01-4.53831881E-01 6.62770869E-02-7.75518009E-03-2.11902507E-02
28  1 1.26938551E-04 4.64318913E-03-1.76660913E-01-5.92891923E-02 1.17856482E-02
28  2-8.00236572E-02-6.07295698E-02-6.54721520E-02 2.82605591E-01 1.05831542E-01
28  3 8.05527088E-02 6.08112880E-02 1.06064152E-01-2.68731871E-01-1.08740541E-01
28  4 2.55044989E-04 1.80425025E-04 4.85161195E-02 1.62278378E-02-3.14588260E-03
28  5 2.00637562E-04 1.07569960E-04 4.78508223E-02 1.59825395E-02-3.12873013E-03
28  6 1.46191426E-04 1.97189368E-03-5.77462866E-02-1.97887524E-02 4.11469160E-03
28  7-5.74923439E-03 2.22750951E-01 7.62415681E-02-1.57581967E-02-3.05613505E-01
28  8 3.25667879E-01-1.82833685E-02 4.98712388E-01 1.80114121E-01 1.95592252E-02
28  9 1.31380199E-04 1.88812115E-03-4.18558149E-02-1.37236025E-02 2.49025776E-03
28 10-5.12734044E-03 3.15279801E-02 9.54712669E-03-1.16792085E-03 7.29997856E-02
28 11-5.77648070E-02-1.34975466E-02-8.65587126E-02 1.20968038E-01 4.82316322E-02
29  1-4.30243466E-02-2.79060225E+00 7.19071479E-03-1.85914698E-02 1.87526978E-02
29  2-1.36553937E-01 3.48905047E-03 1.44978808E-02-9.75752360E-02 6.44117795E-03
29  3-1.36543510E-01 3.51012892E-03 4.83880422E-02-8.72790253E-02 3.93230697E-03
29  4-1.30256120E-01-5.50418494E-02-2.10508514E-02 5.13931454E-02-5.63493084E-02
29  5-1.49921264E-01-9.63868961E-02-1.96010914E-02 4.20223947E-02-8.18403007E-02
29  6-8.17184771E-02-1.15504068E+00-8.25784973E-02 2.07127614E-01-1.96099329E-01
29  7 3.33388591E+00 2.80005550E-01-6.92733958E-01 7.11828359E-01-4.42365274E-01
29  8-2.61386519E-01-2.96547434E-01-5.64408119E-02-7.67365887E-02 2.64240943E-01
29  9-7.59329869E-02-1.07659005E+00 5.65207752E-02-1.30632702E-01 1.88259748E-01
29 10 2.95871777E+00-1.84942221E-01 4.34234114E-01-5.82370581E-01-1.26854368E-01
29 11-4.00052721E-01-4.54464750E-01 1.26088588E-01-5.22346197E-02 7.15019946E-02
30  1-6.58252121E-02 1.97424244E-01-5.42252785E-02 2.03868788E-01 2.20467326E-01
30  2 7.97886761E-02 3.75751961E-02-7.19179335E-02-1.14965508E-01-1.79811039E-01
30  3 7.99189960E-02 3.78229494E-02 1.04743734E-01-5.48500282E-02-1.91377829E-01
30  4 1.43992840E-01 1.75450433E-01 2.83083545E-02-8.44441249E-02 9.96094592E-04
30  5-1.18651753E-01-1.73102912E-01 4.68930320E-03-2.46283771E-02-6.10541650E-02
30  6 1.09205338E-02 1.18419603E-01-2.35362132E-03 4.21242197E-04-3.11975343E-02
30  7-3.72054862E-01 1.16089991E-02 4.09763899E-03 1.91579595E-01-1.74355210E-01
30  8-4.00309913E-01 6.88363485E-01 1.05866790E-01 2.62790099E-02 1.09895967E-01
30  9 6.10759291E-03 1.11352731E-01-4.63363779E-02 1.56421126E-01 9.50731218E-02
30 10-2.65831242E-01 1.21588233E-01-4.15279993E-01-2.70100933E-01 4.46756796E-03
30 11 3.12364599E-02 5.72276869E-02-1.32883426E-02 6.19492585E-03-5.33217297E-03
31  1-6.52519259E-05 1.61041663E-04 5.36651855E-03 1.94501137E-03-2.15272680E-04
31  2 2.19368579E-03 1.22155899E-02-2.99774098E-03 5.23432690E-04-1.52613531E-03
31  3-2.01423411E-03-1.21528547E-02-1.67767247E-03-2.26281299E-03 1.47819346E-03
31  4 9.47889116E-05 1.27641696E-04 3.24057272E-01 1.08725953E-01-2.15225566E-02
31  5-6.56776697E-05-1.27082337E-04-3.27776620E-01-1.10073769E-01 2.17354615E-02
31  6 1.11799719E-05 1.06038040E-04 8.25189742E-03 2.76878934E-03-5.84168474E-04
31  7-3.39770877E-04-2.03175737E-02-6.82079362E-03 1.56009865E-03-1.44915631E-03
31  8 9.02209951E-04 6.57139162E-04 2.05590448E-03 3.15121769E-05-5.49954800E-05
31  9 5.13153131E-06 9.39733085E-05-5.19314186E-04-4.10066768E-05 1.03624882E-04
31 10-2.23067281E-04 2.00073974E-03 3.49315221E-04-3.12948588E-04-2.22043994E-01
31 11 2.70177823E-01-4.80568029E-02 4.21497726E-01 4.26705357E-01 1.09531120E-01
32  1 2.16248625E-04-9.25316172E-04-2.46214353E-01-8.30095968E-02 1.62537287E-02
32  2-8.27127935E-02-1.05187202E-01 9.62394299E-02-1.18732653E-01 2.91153448E-02
32  3 8.23378407E-02 1.05100736E-01 8.22071219E-04 1.51441189E-01-3.50701687E-02
32  4-2.43169363E-04-1.62640483E-04 2.18694288E-01 7.37347088E-02-1.46136607E-02