! You should modify your GAMESS running script (rungms) to save F40
! (orbitals) at the end of the run. Saved orbitals can be used in FMO-MCSCF.
! For JOB=myjob, this means
! save myjob.F40.000
!
 $contrl ITOL=20 icut=10 runtyp=energy pltorb=.t. ispher=1 nprint=-5 $end
 $system memory=100000000  BALTYP=NXTVAL $end
 $gddi ngroup=1 parout=.t. BALTYP=NXTVAL $end
 $scf dirscf=.f. conv=1e-7 diis=.f. soscf=.t. $end
 $intgrl nintic=-90000000 $end
 $basis gbasis=n31 ngauss=6 NDFUNC=1 $end
 $fmoprp naodir=200 nprint=1 modorb=3 $end
 $fmo
      nbody=1 nfrag=5 nlayer=1
      nopfrg(3)=3
      icharg(1)= 0, 0, 0, 0, 0
      frgnam(1)= ala001, ala002, phe003, ala004, ala005
      indat(1)= 0
                1     -6
                7    -10     13    -16      0
               11     12     17    -20     23    -26      0
               21     22     27    -30     33    -46      0
               31     32     47    -50     53    -56      0
               51     52     57    -60     63    -66
               61     62     67    -72      0
 $end
 $data
 alpha /ACE-ALA/-ALA/-PHE/-ALA/-ALA-NME/ 
c1
h 1
c 6
n 7
o 8
 $end
 $FMOLMO
  6-31G@      15   5
    1 0  -0.065034   0.288264   0.000000   0.000000   0.604412
          0.290129   0.000000   0.000000   0.319045  -0.017106
         -0.017106   0.057934   0.000000   0.000000   0.000000
    0 1  -0.065040   0.288293   0.569832   0.000000  -0.201456
          0.290147   0.300783   0.000000  -0.106342   0.049598
         -0.017106  -0.008771   0.000000  -0.027223   0.000000
    0 1  -0.065039   0.288293  -0.284916  -0.493490  -0.201455
          0.290145  -0.150392  -0.260486  -0.106340  -0.000427
          0.032923  -0.008771   0.033353   0.013612   0.023576
    0 1  -0.065039   0.288293  -0.284916   0.493490  -0.201455
          0.290145  -0.150392   0.260486  -0.106340  -0.000427
          0.032923  -0.008771  -0.033353   0.013612  -0.023576
    0 1   1.010938  -0.011975   0.000000   0.000000   0.000000
         -0.054085   0.000000   0.000000  -0.000000  -0.003174
         -0.003174  -0.003174   0.000000   0.000000   0.000000
  MINI         5   5
    1 0  -0.104883   0.308874   0.000000   0.000000   0.521806
    0 1  -0.104883   0.308874   0.491961   0.000000  -0.173934
    0 1  -0.104883   0.308876  -0.245980  -0.426050  -0.173933
    0 1  -0.104883   0.308876  -0.245980   0.426050  -0.173933
    0 1   0.988209   0.063992   0.000000   0.000000   0.000000
 $end
 $FMOBND
      -9    11  6-31G@      MINI      
     -19    21  6-31G@      MINI      
     -29    31  6-31G@      MINI      
     -49    51  6-31G@      MINI      
 $end
 $fmoxyz
      1  H            0.19300000        0.04100000        0.10200000
      2  C           -0.41100001        0.93599999       -0.03500000
      3  H            0.14399999        1.65600002       -0.63499999
      4  H           -1.34099996        0.69000000       -0.54600000
      5  C           -0.72100002        1.55200005        1.30799997
      6  O           -0.33899999        2.68700004        1.56200004
      7  N           -1.39100003        0.79200000        2.17400002
      8  H           -1.66100001       -0.12500000        1.85599995
      9  C           -1.90199995        1.23399997        3.47900009
     10  H           -2.74799991        1.89800000        3.29699993
     11  C           -0.88800001        2.03999996        4.31699991
     12  O           -1.21099997        3.12700009        4.78399992
     13  C           -2.43000007        0.00900000        4.23699999
     14  H           -2.85400009        0.32800001        5.19099998
     15  H           -3.21199989       -0.48100001        3.65499997
     16  H           -1.62199998       -0.69900000        4.42700005
     17  N            0.33500001        1.52600002        4.48699999
     18  H            0.51800001        0.62599999        4.07700014
     19  C            1.41700006        2.18899989        5.21999979
     20  H            1.10699999        2.29800010        6.26100016
     21  C            1.74000001        3.60999990        4.70900011
     22  O            1.98399997        4.50600004        5.51000023
     23  C            2.65400004        1.28199995        5.18499994
     24  H            3.45499992        1.74199998        5.76599979
     25  H            2.41700006        0.31200001        5.62200022
     26  H            2.99499989        1.14699996        4.15799999
     27  N            1.75399995        3.81599998        3.38700008
     28  H            1.46200001        3.05500007        2.79200006
     29  C            1.91400003        5.13600016        2.76699996
     30  H            2.73699999        5.65999985        3.25699997
     31  C            0.65799999        6.00099993        2.95400000
     32  O            0.75300002        7.14099979        3.39599991
     33  C            2.26799989        4.96000004        1.28199995
     34  H            3.17300010        4.35500002        1.20799994
     35  H            1.47000003        4.41400003        0.77899998
     36  C            2.50399995        6.26399994        0.54400003
     37  C            1.47300005        6.84399986       -0.21900000
     38  H            0.50599998        6.36600018       -0.28200001
     39  C            3.75399995        6.90700006        0.63200003
     40  H            4.54600000        6.47499990        1.22500002
     41  C            1.69099998        8.05900002       -0.89300001
     42  H            0.89499998        8.50899982       -1.46899998
     43  C            3.97199988        8.12199974       -0.04300000
     44  H            4.92899990        8.61800003        0.03200000
     45  C            2.94000006        8.69799995       -0.80500001
     46  H            3.10500002        9.63599968       -1.31599998
     47  N           -0.52200001        5.45499992        2.63700008
     48  H           -0.50999999        4.50199986        2.29600000
     49  C           -1.81900001        6.12500000        2.77500010
     50  H           -1.82200003        6.99100018        2.11199999
     51  C           -2.10299993        6.66099977        4.19500017
     52  O           -2.75200009        7.69199991        4.34000015
     53  C           -2.91400003        5.15999985        2.30399990
     54  H           -3.87899995        5.67000008        2.32800007
     55  H           -2.71000004        4.83400011        1.28400004
     56  H           -2.95499992        4.29300022        2.96300006
     57  N           -1.62899995        5.96600008        5.23400021
     58  H           -1.17799997        5.08199978        5.03399992
     59  C           -1.70000005        6.38500023        6.63600016
     60  H           -2.74200010        6.59899998        6.87699986
     61  C           -0.89499998        7.66200018        6.97499990
     62  O           -1.13600004        8.26299953        8.02200031
     63  C           -1.24100006        5.20300007        7.50000000
     64  H           -1.33399999        5.46600008        8.55500031
     65  H           -1.86099994        4.32999992        7.29600000
     66  H           -0.19800000        4.96700001        7.28299999
     67  N            0.06600000        8.06700039        6.13299990
     68  H            0.19000000        7.54300022        5.27400017
     69  C            0.89200002        9.25500011        6.32399988
     70  H            0.25200000       10.13399982        6.41499996
     71  H            1.48300004        9.14999962        7.23500013
     72  H            1.55799997        9.38000011        5.46899986
 $end
; frg#, #atm, chg,   frg names,                   res#s of the frg
;----------------------------------------------------------------------
;    1    6    0     ace001                           1
; imol =     1
; total # of atoms =     6
; total charge =   0
;----------------------------------------------------------------------
;    2    8    0     ala002                           2
;    3   10    0     ala003                           3
;    4   20    0     phe004                           4
;    5   10    0     ala005                           5
;    6   10    0     ala006                           6
;    7    6    0     nme007                           7
; imol =     2
; total # of atoms =    64
; total charge =   0
;----------------------------------------------------------------------
; charge of total system =    0
; ss bond in the system =    0
; fragmentation options: nfgsiz,ifcys,ifgly     1    1    1
;
 ERROR: automatic fragmentation was failed. natm =    72  nattot =    70
  please check data. unassingned atoms are,
      61  in residue    6
      62  in residue    6
  
 WARNING: this protein has covalent bonds of non-peptide residues.
  I do not know how to divide them.
  Please fractionate them yourself.
  covalent bonds(?) are found between,
   res#1,resnam1,res#2,resnam2, iatm,iatmnam,jatm,jatmnam,    rij(A)
      2 ala002      1 ace001         7  N         5  C        1.3328
      7 nme007      6 ala006        67  N        61  C        1.3403
