! FMO sample input for PHE-(ALA)4, 6-31G* reproducing:
! FMO2-RHF:MCSCF (D. G. Fedorov, et al, J. Chem. Phys. 122, (2005), 054108).
!
!                        published      current GAMESS/Linux
! Total energy:        -1705.85906965   -1705.859069702
! RMS gradient:           (0.0119337)       0.0119338 
! RMS Dipole moment:     (22.8325351)      22.8325355
!
! In the reference above only the correlated properties are quoted.
!
! GDDI ($gddi) option is commented out to get started with the minimum
! possible input. Once you master this, consider learning how to use
! this very important option.
! Some parallel MCSCF jobs may require DIRSCF=.t. and setting DDI memory
! ($system memddi= )
!
! More sample FMO inputs can be found at:
! http://staff.aist.go.jp/d.g.fedorov/fmo/main.html
!
! Initial orbitals should be stored as F40 and
! placed in the GAMESS running directory (on the compute nodes).
! For JOB=myjob, this means
! provide myjob.F40.000
!
 $contrl nosym=1 runtyp=gradient ispher=1 nprint=-5 $end
 $system memory=100000000  BALTYP=NXTVAL $end
 $gddi ngroup=1 parout=.t. BALTYP=NXTVAL $end
 $scf dirscf=.t. NPUNCH=0 diis=.f. soscf=.t. $end
 $mcscf fullnr=.f. soscf=.t. canonc=.f. $end
 $det nels=6 nact=6 ncore=36 $end
 $basis gbasis=n31 ngauss=6 NDFUNC=1 $end
 $fmoprp nprint=1 nguess=2 irest=2 modorb=3 ijvec(1)=3,0 modpar=77 $end
 $fmo
        nbody=2
        nopfrg(3)=1 scftyp(1)=rhf,mcscf scffrg(3)=mcscf
        modesp=0 modgrd=16 respap=1 resppc=2

      nfrag=5   nlayer=2 layer(1)=1,1,2,1,1
      icharg(1)= 0, 0, 0, 0, 0
      frgnam(1)= ala001, ala002, phe003, ala004, ala005
      indat(1)= 0
                1     -6
                7    -10     13    -16      0
               11     12     17    -20     23    -26      0
               21     22     27    -30     33    -46      0
               31     32     47    -50     53    -56      0
               51     52     57    -60     63    -66
               61     62     67    -72      0
 $end
 $data
 alpha /ACE-ALA/-ALA/-PHE/-ALA/-ALA-NME/ 
c1
h-1 1
c-1 6
n-1 7
o-1 8
h-2 1
c-2 6
n-2 7
o-2 8
 $end
 $FMOLMO
  6-31G@      15   5
    1 0  -0.065034   0.288264   0.000000   0.000000   0.604412
          0.290129   0.000000   0.000000   0.319045  -0.017106
         -0.017106   0.057934   0.000000   0.000000   0.000000
    0 1  -0.065040   0.288293   0.569832   0.000000  -0.201456
          0.290147   0.300783   0.000000  -0.106342   0.049598
         -0.017106  -0.008771   0.000000  -0.027223   0.000000
    0 1  -0.065039   0.288293  -0.284916  -0.493490  -0.201455
          0.290145  -0.150392  -0.260486  -0.106340  -0.000427
          0.032923  -0.008771   0.033353   0.013612   0.023576
    0 1  -0.065039   0.288293  -0.284916   0.493490  -0.201455
          0.290145  -0.150392   0.260486  -0.106340  -0.000427
          0.032923  -0.008771  -0.033353   0.013612  -0.023576
    0 1   1.010938  -0.011975   0.000000   0.000000   0.000000
         -0.054085   0.000000   0.000000  -0.000000  -0.003174
         -0.003174  -0.003174   0.000000   0.000000   0.000000
  MINI         5   5
    1 0  -0.104883   0.308874   0.000000   0.000000   0.521806
    0 1  -0.104883   0.308874   0.491961   0.000000  -0.173934
    0 1  -0.104883   0.308876  -0.245980  -0.426050  -0.173933
    0 1  -0.104883   0.308876  -0.245980   0.426050  -0.173933
    0 1   0.988209   0.063992   0.000000   0.000000   0.000000
 $end
 $FMOBND
      -9    11  6-31G@      6-31G@ MINI      
     -19    21  6-31G@      6-31G@ MINI      
     -29    31  6-31G@      6-31G@ MINI      
     -49    51  6-31G@      6-31G@ MINI      
 $end
 $fmoxyz
      1  H            0.19300000        0.04100000        0.10200000
      2  C           -0.41100001        0.93599999       -0.03500000
      3  H            0.14399999        1.65600002       -0.63499999
      4  H           -1.34099996        0.69000000       -0.54600000
      5  C           -0.72100002        1.55200005        1.30799997
      6  O           -0.33899999        2.68700004        1.56200004
      7  N           -1.39100003        0.79200000        2.17400002
      8  H           -1.66100001       -0.12500000        1.85599995
      9  C           -1.90199995        1.23399997        3.47900009
     10  H           -2.74799991        1.89800000        3.29699993
     11  C           -0.88800001        2.03999996        4.31699991
     12  O           -1.21099997        3.12700009        4.78399992
     13  C           -2.43000007        0.00900000        4.23699999
     14  H           -2.85400009        0.32800001        5.19099998
     15  H           -3.21199989       -0.48100001        3.65499997
     16  H           -1.62199998       -0.69900000        4.42700005
     17  N            0.33500001        1.52600002        4.48699999
     18  H            0.51800001        0.62599999        4.07700014
     19  C            1.41700006        2.18899989        5.21999979
     20  H            1.10699999        2.29800010        6.26100016
     21  C            1.74000001        3.60999990        4.70900011
     22  O            1.98399997        4.50600004        5.51000023
     23  C            2.65400004        1.28199995        5.18499994
     24  H            3.45499992        1.74199998        5.76599979
     25  H            2.41700006        0.31200001        5.62200022
     26  H            2.99499989        1.14699996        4.15799999
     27  N            1.75399995        3.81599998        3.38700008
     28  H            1.46200001        3.05500007        2.79200006
     29  C            1.91400003        5.13600016        2.76699996
     30  H            2.73699999        5.65999985        3.25699997
     31  C            0.65799999        6.00099993        2.95400000
     32  O            0.75300002        7.14099979        3.39599991
     33  C            2.26799989        4.96000004        1.28199995
     34  H            3.17300010        4.35500002        1.20799994
     35  H            1.47000003        4.41400003        0.77899998
     36  C            2.50399995        6.26399994        0.54400003
     37  C            1.47300005        6.84399986       -0.21900000
     38  H            0.50599998        6.36600018       -0.28200001
     39  C            3.75399995        6.90700006        0.63200003
     40  H            4.54600000        6.47499990        1.22500002
     41  C            1.69099998        8.05900002       -0.89300001
     42  H            0.89499998        8.50899982       -1.46899998
     43  C            3.97199988        8.12199974       -0.04300000
     44  H            4.92899990        8.61800003        0.03200000
     45  C            2.94000006        8.69799995       -0.80500001
     46  H            3.10500002        9.63599968       -1.31599998
     47  N           -0.52200001        5.45499992        2.63700008
     48  H           -0.50999999        4.50199986        2.29600000
     49  C           -1.81900001        6.12500000        2.77500010
     50  H           -1.82200003        6.99100018        2.11199999
     51  C           -2.10299993        6.66099977        4.19500017
     52  O           -2.75200009        7.69199991        4.34000015
     53  C           -2.91400003        5.15999985        2.30399990
     54  H           -3.87899995        5.67000008        2.32800007
     55  H           -2.71000004        4.83400011        1.28400004
     56  H           -2.95499992        4.29300022        2.96300006
     57  N           -1.62899995        5.96600008        5.23400021
     58  H           -1.17799997        5.08199978        5.03399992
     59  C           -1.70000005        6.38500023        6.63600016
     60  H           -2.74200010        6.59899998        6.87699986
     61  C           -0.89499998        7.66200018        6.97499990
     62  O           -1.13600004        8.26299953        8.02200031
     63  C           -1.24100006        5.20300007        7.50000000
     64  H           -1.33399999        5.46600008        8.55500031
     65  H           -1.86099994        4.32999992        7.29600000
     66  H           -0.19800000        4.96700001        7.28299999
     67  N            0.06600000        8.06700039        6.13299990
     68  H            0.19000000        7.54300022        5.27400017
     69  C            0.89200002        9.25500011        6.32399988
     70  H            0.25200000       10.13399982        6.41499996
     71  H            1.48300004        9.14999962        7.23500013
     72  H            1.55799997        9.38000011        5.46899986
 $end
--- CLOSED SHELL ORBITALS --- GENERATED AT Mon Aug 16 14:12:01 2004
 alpha /ACE-ALA/-ALA/-PHE/-ALA/-ALA-NME/                                        
E(RHF)=     -474.8787822390, E(NUC)=  517.6975229242,    2 ITERS
 $VEC1
 1  1 1.69210231E-04 4.91591603E-04-1.52160531E-05-7.08649221E-05 6.25865016E-05
 1  2 3.98464847E-03 1.72322197E-03 6.28904133E-03 5.00360188E-03 2.05102487E-04
 1  3-7.99233801E-05-1.25179107E-04-1.03700225E-04-1.58176784E-04-5.72543026E-04
 1  4 9.95877513E-01 2.32964987E-02-4.02296511E-04-1.51263653E-03-1.36987752E-03
 1  5-1.43878435E-02 8.66309629E-04 3.19964965E-03 2.95217653E-03-5.61794103E-05
 1  6 3.48114597E-05 2.13679506E-05 2.72369561E-05-3.60512750E-05-1.60089877E-04
 1  7 1.66735498E-05-1.89544091E-04 5.25187605E-05 1.76997508E-04-2.23657042E-04
 1  8 9.71775037E-04-8.19087566E-04-3.14616558E-03 1.04409627E-03-8.34205328E-05
 1  9 9.95079050E-05-1.60873722E-05 7.53115590E-05-3.07218395E-05-1.53322130E-04
 1 10-3.77023146E-04-4.02248961E-04-6.81269389E-06-1.44062804E-04 9.64683553E-05
 1 11-2.55438929E-04 8.89943199E-06 2.07177142E-03 4.16772707E-04-8.66294332E-04
 1 12 1.63341689E-04-1.29074802E-05 6.64302946E-05-5.35228144E-05 3.29654419E-05
 1 13 8.05525919E-06-3.31671154E-05-1.37335582E-04-2.98953300E-04 8.80068830E-06
 1 14 4.22025399E-05 2.98374342E-05 1.08663304E-05-2.65818106E-05-8.31398405E-04
 1 15-2.40166786E-04-3.28463360E-04-1.13012893E-04 6.68394646E-06-4.82616726E-06
 1 16-1.85777920E-06-1.86013662E-06-5.08986232E-06 5.38248164E-06 4.01273194E-05
 1 17 3.97752725E-05-9.24213816E-06-1.10799979E-04-8.52217675E-06-7.48341465E-05
 1 18-9.43394025E-07 7.68587841E-06-2.28977981E-05 3.32167245E-04 5.98114297E-05
 1 19-3.96335485E-04 3.96839663E-04-6.99434514E-06 3.68154289E-06 3.31280225E-06
 1 20 5.14221678E-06-5.22809623E-06-2.14358003E-05-2.15760359E-06-1.99905358E-05
 1 21-3.68533756E-07-2.93038985E-06-2.73855186E-06 2.35948820E-04 1.85103642E-04
 1 22 5.49591955E-05 1.46798473E-05 1.09360659E-05-3.85811896E-06-7.07794693E-06
 1 23-1.14781255E-06 1.32551988E-06-1.05759648E-07 2.82580474E-06 7.68034431E-05
 1 24-4.50201183E-07-1.46446637E-05 6.92982229E-06 9.30114018E-06-9.70739370E-06
 1 25-5.38573931E-05-4.87546563E-05 2.06990800E-05-4.42861507E-05 7.58736033E-06
 1 26-8.83888892E-06 1.25152859E-06-2.30937719E-06 1.21219330E-05 4.30326223E-06
 1 27-4.99687512E-06 6.15261914E-05-5.19292313E-07-5.21089135E-06-4.98410173E-07
 1 28 6.54768978E-06-1.76263057E-06-7.27399770E-05-1.62312396E-05 1.51819925E-05
 1 29-1.74068271E-05 1.63996394E-06-3.72885936E-08-1.60267535E-06 4.14599211E-07
 1 30 2.72610174E-07-1.57823500E-06-4.67605429E-07 9.67291022E-07-2.20988052E-06
 1 31-1.57209275E-05 3.64385116E-06 1.76108423E-06 3.10250979E-06 3.87477640E-05
 1 32-3.74535716E-05-3.73953740E-05 3.13637465E-06-1.00115111E-06 3.20212769E-06
 1 33-2.20097659E-06 2.62449386E-06 1.74965576E-06-4.79055328E-06 2.12235697E-06
 1 34 2.21152694E-05-2.80096540E-07-3.84370201E-06-2.97408425E-06 2.95815335E-06
 1 35-1.43655538E-06 2.80099692E-06-1.84706937E-06-5.18924910E-07-1.48765335E-06
 1 36 8.99385728E-07-4.87667980E-08-8.50618930E-07 1.00588534E-06 4.66315456E-07
 1 37-1.25683742E-07-7.01685088E-07 2.51184046E-06 1.83262402E-04-3.54592134E-05
 1 38-2.50346883E-04-7.91301548E-04-1.90285592E-03 2.05963646E-03-8.37404919E-05
 1 39 8.73541410E-05-2.28535789E-03 4.31799220E-05-1.69078461E-04 1.25898539E-04
 1 40-3.06762789E-05 5.92678564E-05-2.24682833E-04
 2  1 7.15174871E-05-4.17967714E-04-7.99623878E-06-1.81793190E-05 1.81579230E-04
 2  2 5.69630396E-03 2.78247981E-04 2.26707148E-03-5.09039826E-03 1.89248198E-04
 2  3 3.37123413E-04-5.26371610E-04 3.96889730E-05-8.62039789E-06-5.04315819E-06
 2  4-3.19231039E-05-1.01906332E-04 1.57515631E-05 9.12798289E-05 1.03612922E-05
 2  5-1.89531413E-04-1.01499861E-04-7.06122510E-04 8.39637398E-04-1.31867279E-04
 2  6 2.50581524E-04-1.18714245E-04 1.07659162E-04-1.58428986E-05-4.63506612E-05
 2  7 9.96058793E-01 2.47707102E-02-2.69492612E-04 2.20907196E-04 3.82781436E-04
 2  8-1.78688234E-02-1.29653207E-04-1.92595413E-03-2.33615848E-03 1.41035901E-04
 2  9-1.59544528E-04 1.85086277E-05-7.57012942E-05 9.05335502E-06 1.94180273E-05
 2 10-8.00365564E-05 1.48708399E-03 5.53189721E-05-2.61143794E-04-3.91555051E-04
 2 11 1.17017586E-04 2.13360445E-04 5.86034014E-03 6.84966839E-05-2.25200956E-03
 2 12 5.69944719E-04 1.14328015E-04-2.74197207E-04 1.59869191E-04-1.95456061E-05
 2 13-9.03037694E-06 8.95562496E-05-3.26746986E-04-3.47926266E-04 3.97672327E-05
 2 14 1.84263047E-04 2.72204877E-05-6.48391041E-06-1.10448309E-04-2.42076777E-03
 2 15-3.34674679E-05-3.11019422E-04-6.89335971E-04 3.15118708E-05 6.40354901E-05
 2 16-9.55473609E-05-1.93322921E-05 1.81898557E-05 2.59722815E-05 4.44954592E-05
 2 17 1.36596235E-04 1.13132488E-04-2.53656763E-04-2.04963246E-05-2.23434441E-04
 2 18 3.67748837E-05 3.04811925E-05-8.54473315E-05 6.07304397E-04-3.27508965E-04
 2 19-8.07896839E-04 9.39064273E-04-1.54228073E-05-7.32199682E-06 2.27448041E-05
 2 20 7.77314120E-06-9.65595030E-06-5.17417325E-05-2.01855435E-07-1.79837914E-05
 2 21-6.35422341E-06 6.22697554E-06-8.73173954E-06 1.82133076E-04 3.59393838E-04
 2 22 1.43600709E-04-9.84077766E-05 3.72234249E-05-1.50830263E-05-2.21403986E-05
 2 23-7.11192847E-06-7.59990081E-06 9.84621274E-06 5.55227837E-06 2.10297923E-04
 2 24-5.27049079E-06-5.84495089E-05 6.65646096E-06 3.50552247E-06-1.64580364E-05
 2 25 3.53007710E-04-2.10573422E-04 1.14627651E-04-2.52636395E-04 7.57270230E-06
 2 26-1.24140181E-05 4.84131576E-06 5.83744296E-06 3.48999920E-05 6.31450799E-06
 2 27 5.45172115E-06 1.32578575E-04-2.88162263E-06-2.28541166E-05-8.03794828E-06
 2 28 1.03771803E-05-3.02574670E-06-1.27572311E-04-3.53685824E-06 1.38984738E-05
 2 29 1.24640317E-05 2.01691252E-06 9.81492239E-07-2.99840476E-06 2.79305715E-06
 2 30-1.11578525E-06-9.68240889E-06 3.59155003E-06 2.11644410E-05-1.52189215E-06
 2 31-1.20641114E-05 4.57961343E-06 1.20925172E-05 3.57625312E-06-1.57971733E-04
 2 32 1.11050929E-05 3.81266397E-05-1.86663331E-05-6.50015041E-07 1.02773571E-06
 2 33-3.77720667E-07 3.20142897E-06 4.16742323E-06-4.07345063E-06 2.31290004E-06
 2 34 1.68474186E-05-8.79900392E-07-1.01202311E-05 7.67912452E-07 8.78337624E-06
 2 35 2.25922940E-06 3.60693641E-05-8.35742492E-06-3.75545485E-05-1.28566824E-06
 2 36 1.18794409E-06 5.76994307E-07-1.76493840E-06 1.73035455E-07 2.83257539E-06
 2 37-1.59446612E-07 8.33994360E-07 1.39094728E-05 1.89307104E-04 6.07134371E-05
 2 38 1.73486996E-04 5.27374420E-04 2.13272163E-03 1.34284738E-03 3.40451742E-04
 2 39 1.07083958E-03 1.71310737E-03-9.54738527E-05 4.54967074E-05 4.99771453E-05
 2 40 7.05333202E-06-7.47770110E-05 1.71060081E-04
 3  1 9.96156622E-01 2.42809767E-02 1.32169341E-04 4.52533964E-04-4.02944373E-04
 3  2-6.63422012E-03 1.22990445E-03 5.22443982E-03-2.65565162E-04-9.76662829E-04
 3  3 2.20596431E-04 7.56066398E-04 3.69727374E-04 1.74769971E-04 4.04919718E-04
 3  4-2.96153306E-04 6.43384321E-04-2.23700891E-05-3.28251913E-05-1.46244781E-04
 3  5-3.25531275E-03 3.23155944E-04 9.81258746E-04 1.87618936E-03 2.71205366E-04
 3  6-8.08835825E-05-1.90321783E-04-1.11169343E-04-8.71092466E-05-2.67237746E-04
 3  7-1.94675110E-04 3.60558417E-04 3.95979105E-05 2.13120952E-04-1.51612745E-04
 3  8-2.16672285E-03-6.00484435E-04-2.42363520E-03-1.77038358E-03 5.02255688E-04
 3  9 1.91346727E-04-6.93602415E-04-4.39121942E-05 1.09626631E-05 2.06334451E-04
 3 10-4.20761118E-04-4.18414756E-04-3.16330642E-03-3.55709753E-04 4.79396700E-05
 3 11-1.84160417E-04 3.30470695E-06 2.42280729E-03 4.23931841E-04-9.76421003E-04
 3 12 8.40840719E-04-9.39244425E-05 5.78311084E-05 3.60933342E-05 3.13066392E-05
 3 13-6.19540420E-06-1.70100625E-04-1.76039797E-04-4.17515841E-04 4.35414589E-05
 3 14 1.18564255E-04 4.05702032E-06-8.97540564E-05 6.86353704E-05 1.10222788E-04
 3 15-8.14624792E-05 9.80031633E-04-8.65098548E-04-1.66578983E-05 6.21248577E-05
 3 16-4.54669594E-05 5.44566290E-06-9.80614945E-06-6.88171043E-06 8.77391973E-05
 3 17 2.26056404E-04 5.04169979E-05-1.98617081E-05-2.95428599E-05-4.42969414E-05
 3 18 7.50528041E-06-2.81387092E-05-4.09365693E-05-2.09734313E-04 2.33049706E-04
 3 19 9.18182893E-04-1.71724694E-04 1.46331235E-05-3.13450486E-05 1.67119250E-05
 3 20-6.18777820E-06 5.79677501E-07 9.28804603E-06 3.83169994E-07 2.33448448E-05
 3 21 8.61458165E-07-5.87378610E-06-3.52321324E-06-2.05425273E-04-2.24065633E-04
 3 22-1.09704995E-04-9.07048874E-05-5.04019294E-06 8.95164217E-06-3.91144923E-06
 3 23-1.12424756E-05-1.64821103E-05-4.98819357E-07-6.19437089E-06-1.10076854E-04
 3 24 3.58796899E-06 2.58584633E-05 7.26575850E-06 9.26200528E-06-1.47868635E-05
 3 25-5.16481615E-04 3.22312750E-04-1.73882164E-04 1.83012135E-04-1.40132247E-05
 3 26 3.16415293E-06 1.08490717E-05 4.62521231E-06 3.83836217E-06 1.01814464E-05
 3 27-1.83330957E-05-1.31620444E-04 1.71252745E-06 1.30006434E-05 2.99282435E-06
 3 28-3.55626628E-06 8.36816630E-06 1.25921511E-04 5.70552304E-05 1.14734915E-05
 3 29 2.04140260E-05 1.33269908E-06-2.71353710E-06 1.38083802E-06-1.27783473E-06
 3 30-2.88392031E-06 3.17368491E-06 1.74929782E-06-3.25267024E-06-6.58039311E-07
 3 31-2.71868329E-07-5.34178440E-06-9.48490821E-06 9.63191128E-06 2.79152068E-04
 3 32-1.17548949E-04-7.99804768E-05 1.45038623E-06-3.06841060E-06 1.81110788E-06
 3 33 1.25730272E-06 1.54415527E-06-9.57171723E-08-8.11967784E-07 3.71842054E-06
 3 34 2.10175363E-05 2.74664174E-06 1.75780179E-05-5.42618484E-06-2.69916629E-06
 3 35 3.65293577E-06-1.70251122E-04 2.54808913E-05 8.52923177E-05-5.13835826E-05
 3 36-3.31297770E-06 1.65190496E-06 1.66107274E-06-1.72579424E-07-2.73758758E-06
 3 37 2.41236006E-06-1.81168037E-06-2.94168202E-05 2.96611799E-03-9.10807537E-04
 3 38 6.79876004E-05 2.89772311E-04-1.30498463E-04 3.99171971E-03 4.81116223E-04
 3 39 2.18729019E-03-1.02154864E-03 1.59189716E-04-2.72118505E-04 1.12928789E-04
 3 40-1.24779338E-04 2.55587652E-05 1.15061773E-04
 4  1 3.14222300E-03-6.00570414E-05 5.15596567E-05-2.47116197E-04 1.19170776E-04
 4  2 8.34343997E-04 6.06989742E-04 2.66550636E-03-1.41449390E-03-1.16074274E-04
 4  3 1.53799622E-05 1.00694312E-04 3.83497527E-05-2.22395532E-05 7.21318354E-05
 4  4 6.21028037E-05 7.27096334E-05 6.03004643E-05 1.57286494E-05 6.30483694E-05
 4  5-1.08694180E-03-1.12907583E-04-1.14718458E-04 4.90384443E-04-4.56664147E-05
 4  6 7.24890157E-05-2.68226010E-05 1.73742314E-05 9.96863211E-06-3.44757988E-05
 4  7-2.10386985E-04-1.08967208E-04 4.74015274E-04-2.08687463E-04-1.71986491E-05
 4  8 1.32898138E-03-4.32794867E-04-5.70771377E-05-1.65536992E-03 3.86232238E-04
 4  9-4.86918028E-04 1.00685790E-04 1.20104213E-05-8.12739318E-06 3.82602816E-04
 4 10-3.29634125E-04-3.95286845E-04 1.00203411E+00 5.91802117E-03 2.92791941E-02
 4 11-2.10555791E-02-4.15358568E-03-3.46495612E-02 1.51263758E-02-1.00360566E-02
 4 12-1.10989414E-03-1.59078333E-03 1.35359754E-04 1.45542358E-03 2.58376714E-03
 4 13 6.04900324E-04-4.37469941E-04-1.48842342E-04 3.28827157E-03 2.77954118E-02
 4 14 1.66309679E-04 3.73958641E-04-3.82539833E-04-2.49269671E-05 2.90968372E-03
 4 15-1.29628690E-03 3.23643085E-04 2.81027477E-03 1.29110861E-04 1.05398694E-04
 4 16-2.34509555E-04 4.39014859E-05 2.36609795E-04-1.10217178E-04-5.75996204E-05
 4 17 8.99408353E-04-3.35849622E-04 4.56893500E-04-1.86976622E-02-1.24325675E-03
 4 18 1.30628113E-04 1.32437177E-04-2.51201915E-04 3.21795441E-03 8.81852106E-07
 4 19-3.53661675E-04 3.94472808E-04-2.37832774E-05 2.38361831E-05-5.29056894E-08
 4 20-2.03016677E-05 3.46129015E-05 1.66221773E-05-2.22045583E-03 2.36952346E-05
 4 21 5.83650906E-06-1.83764388E-05-3.23839976E-05-5.90397376E-04-3.40138079E-04
 4 22 4.93637002E-04-5.02764238E-04 1.53087723E-05 1.13192526E-05-2.66280249E-05
 4 23-2.35723810E-06-1.20479536E-05 3.57182224E-05 3.46980468E-05-4.04387739E-05
 4 24 9.59979934E-05 1.28614290E-04-2.40475840E-05-9.53126952E-06 1.37700929E-05
 4 25-7.90546484E-04 8.05079872E-04 4.45005107E-04-1.84069218E-04-1.90013699E-05
 4 26 1.07784707E-05 8.22289926E-06-1.47319736E-05 2.45185019E-05 2.35575124E-05
 4 27 8.78619566E-05-2.56010225E-04-3.53023194E-05-8.91678494E-06-1.08463977E-05
 4 28-1.96195995E-06-1.80445190E-06-7.10063344E-05 3.66899198E-04 1.47939576E-04
 4 29 6.35989820E-05 1.41870396E-06 8.67677770E-07-2.28638173E-06-5.83528759E-07
 4 30 3.50914572E-06-2.32525772E-07 2.92360057E-05 9.04623022E-05-6.24215785E-06
 4 31-2.14218556E-05 1.27708498E-05-3.02567520E-06-2.57364946E-07-4.48510780E-06
 4 32-4.21086894E-04 1.01688796E-04-1.41887718E-04 5.86296617E-06-6.67845322E-06
 4 33 8.15487053E-07 6.48357498E-06-4.36451365E-06-4.48526991E-06 3.11573501E-05
 4 34 1.29634318E-04 8.65548531E-06 2.29997998E-05-2.42772171E-06 1.15640929E-05
 4 35-3.06419654E-06-5.90809667E-04 4.07611192E-05 1.42695807E-04-1.02730879E-04
 4 36-2.61939284E-06 1.70227823E-06 9.17114615E-07-2.69405816E-06-5.36699924E-06
 4 37 3.00871603E-06 9.59933624E-06-2.73020943E-05-1.29741896E-05-1.55303041E-04
 4 38-6.08057698E-05 1.11371909E-04-1.34135820E-05 1.89568435E-03 2.02873120E-04
 4 39 8.98844649E-04-2.20366852E-04-3.11052625E-05 6.26073842E-05-3.15021218E-05
 4 40 3.20289715E-05-5.51517587E-06-1.47938080E-05
 5  1-6.74944517E-05-2.17512042E-05 2.13638440E-05-7.01608134E-05 4.79408577E-06
 5  2 4.90561089E-04 1.37944547E-04 1.01659073E-03-4.82371209E-04-2.98311081E-05
 5  3-2.78211008E-06 3.26132182E-05 4.28242357E-07-3.55928352E-06 2.00360801E-05
 5  4 1.41165929E-06 6.31787009E-06 4.96949170E-06-1.16877974E-05 2.45587215E-05
 5  5-3.54144017E-04 1.71331503E-05 6.41982573E-05 9.64775805E-05-2.89481472E-05
 5  6 2.27225845E-05 6.22556271E-06 3.00098495E-06-3.42615504E-07-2.89234556E-05
 5  7 2.05451315E-06-1.27554404E-04-9.84645691E-06-3.84143328E-05 9.53772563E-05
 5  8-1.05507375E-04-1.28623248E-04 1.21850997E-05-6.07210804E-04-7.23925526E-05
 5  9 2.78285396E-05 4.45640130E-05-9.61150079E-06-4.19702694E-05 1.25947174E-05
 5 10-9.51053838E-05-1.14146398E-04-1.52486940E-02-6.22070630E-04-6.69809731E-04
 5 11 3.88868151E-04 1.95903717E-04 5.96369245E-03 6.68322179E-04 8.11636492E-04
 5 12-3.04104043E-03 1.64318429E-04 5.79711773E-05-2.22289606E-04 2.79453679E-05
 5 13 1.01750954E-04-1.09600559E-04-2.85192445E-04-2.73597042E-04 8.66699561E-01
 5 14 2.32999842E-02-6.27487035E-05 2.38059961E-04 1.55358145E-04-1.78797928E-02
 5 15 1.36642048E-04-9.86158401E-04-1.68796644E-03 2.09881509E-04-1.54491111E-04
 5 16-5.53903988E-05-4.93657542E-05 4.68091140E-05 1.64237267E-04 1.59184071E-04
 5 17 2.75932630E-03 1.15132140E-04 2.53624439E-03 4.90001511E-01 1.22918408E-02
 5 18-2.78420552E-05-2.45694637E-05 1.28074965E-04-4.81104295E-03-4.26435326E-04
 5 19-1.82191474E-03 9.73525882E-04 2.93830412E-04-2.66418226E-04-2.74121867E-05
 5 20-1.82495839E-05 1.64142016E-04 4.24044854E-05 2.17011717E-02 1.51088287E-05
 5 21-1.19261848E-04 1.92830587E-04-2.08063077E-04 1.07122014E-03 4.15369489E-04
 5 22-1.44823925E-03 1.27484107E-03 1.94350938E-05-2.43588247E-05 4.92373091E-06
 5 23 1.27043506E-04-1.01714378E-04 1.04073694E-04-1.85722839E-04-2.19758801E-04
 5 24 2.30021410E-02 9.16399780E-05 2.06042339E-04 2.19265334E-04-6.41636581E-05
 5 25 8.60683573E-04-1.21573337E-03-1.85743583E-03 7.97962841E-04-5.30870640E-05
 5 26-4.00471818E-05 9.31342459E-05-1.57059668E-04 2.73572494E-05-4.85030217E-07
 5 27-2.04199188E-04-1.39948723E-04 8.12920203E-04-2.33550124E-04-1.69469264E-05
 5 28 4.49885962E-05-1.27947341E-05 1.78391143E-03 2.44111726E-04-9.40964924E-04
 5 29 5.53302538E-04 6.41138253E-06 3.19975867E-05-3.84089692E-05 9.68022014E-06
 5 30 2.62344715E-05-6.51688198E-05-1.90807467E-05 3.11508858E-04 9.20586195E-04
 5 31-2.58949003E-04 2.22920106E-05 3.95484994E-05-1.76336801E-06 2.05863158E-03
 5 32-5.02869174E-04-1.16819311E-03 4.52701662E-04 4.88512950E-06 3.41729168E-05
 5 33-3.90580463E-05 3.85844228E-05 2.09673509E-05-6.57645505E-05-2.40113368E-05
 5 34 3.22969306E-04-3.05303552E-04-6.87282580E-05 2.18229135E-06 3.41658744E-05
 5 35-2.37313653E-05-3.55548541E-04 1.41902029E-04 5.13741705E-04-2.01239945E-04
 5 36 1.26442874E-05-3.52777390E-06-9.11651347E-06 4.86051645E-06 9.12659312E-06
 5 37-1.44422780E-05-5.40306870E-05-1.05851344E-04-9.45317568E-06-8.47819503E-05
 5 38-2.82675971E-06 2.25394878E-05-4.73067115E-06 7.10619673E-04 1.18654223E-04
 5 39 3.25660847E-04-1.18859659E-04-1.42837848E-05 2.03044817E-05-6.02069685E-06
 5 40 1.77396841E-05-5.93047137E-06-1.35505392E-05
 6  1 1.34659154E-04-5.13053700E-05-7.21378523E-06-4.87243214E-05 3.91434400E-05
 6  2 8.48762747E-05 8.26879190E-05 1.94399015E-04-2.56604579E-04-1.68898698E-05
 6  3-1.15537201E-05 2.84435900E-05 2.32441114E-06 4.04015381E-06 2.94402053E-05
 6  4 3.67022871E-06-1.15731450E-05 3.80464801E-06-5.57637382E-06 8.29286139E-06
 6  5-2.11406352E-05-1.58383837E-05 1.19749482E-05 4.37250749E-05 1.55211938E-06
 6  6 5.62782589E-06-7.17994527E-06 2.93047702E-06-1.11296148E-06-1.38308321E-05
 6  7-2.78910616E-05-1.44101331E-04 2.98866053E-05-4.04726536E-05-3.48457934E-05
 6  8 1.05273353E-03 4.09805162E-05 8.48326090E-04-2.75745409E-04-3.81379913E-06
 6  9 6.18626027E-05-5.80488036E-05 6.63473959E-08 8.20689457E-06-3.67754578E-05
 6 10 3.21783000E-06 2.48610603E-04 3.03879960E-02-5.31977257E-04 1.55769254E-03
 6 11-1.26050890E-03-8.52395304E-05-2.87576871E-03 1.14851827E-03 6.87624371E-04
 6 12-5.22523905E-04-1.67916961E-04-1.60018898E-04 3.27935859E-04 1.18043182E-04
 6 13-7.38761401E-05 8.63503410E-05-6.29898928E-05-7.81457239E-05-4.90590310E-01
 6 14-1.30246174E-02 5.46176339E-05-1.98430858E-04 1.47046430E-05 1.12753631E-02
 6 15 1.61742974E-04 1.27078402E-03-1.30851766E-03 2.02831832E-04-2.19767904E-04
 6 16 1.69360729E-05-9.73822661E-05 7.45764222E-05 2.55833520E-04-2.10721164E-04
 6 17-1.35056263E-03-1.96448608E-04-1.65719500E-03 8.64352822E-01 2.19978274E-02
 6 18-4.85920499E-05-1.03945848E-04 1.46325041E-04-1.67030329E-02 4.27055004E-04
 6 19 6.16086936E-04-5.44073372E-04 1.54945687E-04 7.31816636E-05-2.28127351E-04
 6 20 1.33191863E-04 2.03749862E-04-3.55192106E-04 4.16031458E-02 4.11668148E-04
 6 21-2.22462578E-04 7.07165649E-05-1.14812345E-04 4.38344431E-03 1.76726067E-03
 6 22-1.71803823E-04 8.43762468E-04-1.65851045E-04 9.30871847E-05 7.27638608E-05
 6 23 1.48439419E-04-2.49978238E-04 1.55383430E-04-7.79985632E-05 2.85118511E-04
 6 24 4.51840140E-02 5.12132582E-04 2.27359943E-04 8.17975068E-05 6.72331680E-05
 6 25 4.18817661E-03-1.62285902E-03-7.85621318E-05-5.75925830E-04-2.68403118E-04
 6 26 7.99052175E-05 1.88497900E-04-2.41120173E-04-9.83693235E-05 1.30307564E-05
 6 27-6.10014947E-05 2.02415178E-04 1.69089310E-03 9.43829543E-05 4.67747968E-07
 6 28 4.51764895E-05-3.71182274E-05-1.77678738E-03-9.27421706E-04 4.38810818E-04
 6 29-6.17123550E-04 1.02846484E-05-1.84793992E-05 8.19475078E-06-2.04033929E-05
 6 30 1.67706198E-05 1.17267393E-05-3.99322119E-05-2.59094529E-04 2.02216633E-03
 6 31 1.04194961E-04 2.52537990E-05 4.65516433E-05-3.08254384E-05-1.84236738E-03
 6 32 9.91807360E-04 6.01356844E-04 4.60768787E-05 2.67385064E-05-2.28618373E-05
 6 33-3.87666908E-06 9.00986938E-06-2.26206428E-06 2.56946834E-05-3.41953227E-05
 6 34-2.37780952E-04-6.04354646E-04-1.98825349E-04 6.22316981E-06 3.13883839E-05
 6 35-2.04874899E-05 1.77916185E-03-2.41094238E-04-1.06152614E-03 5.57082233E-04
 6 36 2.29189968E-05-1.33764041E-06-2.15813564E-05 1.12551478E-05 2.12572586E-05
 6 37-2.43693317E-05 4.50890303E-05 3.31186604E-04-5.54236889E-06-5.10280132E-05
 6 38-5.65783973E-06 5.46588154E-06 1.77703547E-07 2.57511853E-04 2.82259067E-05
 6 39 1.42497525E-04-3.81972875E-05-1.30387562E-05 1.49866124E-05-1.94785618E-06
 6 40 5.64536705E-06-2.30551232E-06-8.09058609E-06
 7  1-2.44418809E-06-2.24365996E-06-2.53041159E-07-1.41551252E-06-8.59558100E-06
 7  2 9.12683090E-05-2.20208496E-05-7.23351086E-05-9.75743276E-05-1.30858286E-06
 7  3-1.92182379E-06 3.23040665E-06 8.91656290E-08 1.15847686E-06 2.22021776E-06
 7  4-7.63112731E-07-1.14335264E-05 1.14326820E-06 1.92038345E-06-1.19798563E-06
 7  5 6.85676042E-05-7.07323951E-06-1.92213062E-05-5.05440167E-06-3.85406279E-08
 7  6 4.16701162E-07-3.78160534E-07-1.79067597E-07 6.49253149E-07 2.59571467E-07
 7  7-4.47015157E-06-4.28338800E-05-2.79265995E-06-1.10414952E-05 1.18331544E-05
 7  8 2.01063341E-04 5.74975737E-05 2.30995298E-04-1.91628576E-04-1.23698400E-05
 7  9 1.83797511E-05-6.00991109E-06 9.25991762E-06-3.28035230E-06-1.21054908E-05
 7 10-1.24891594E-05 5.08008306E-05-5.59559420E-04 8.02415545E-05-3.88243603E-05
 7 11 2.00935317E-05 2.27483976E-05-6.10284382E-04-1.29544710E-04 1.81875597E-04
 7 12 6.39421289E-06 1.59995359E-05-1.79329467E-05 1.93341077E-06-9.55399842E-06
 7 13 1.15222987E-05 2.93281140E-05-8.78003361E-06 1.64925870E-04 1.23343647E-03
 7 14-1.87716081E-04-2.05686441E-05-2.32209983E-05 9.34779483E-07 1.15755338E-03
 7 15 2.28561263E-04 5.45584151E-04-8.07269116E-05-3.29014849E-06 2.53007551E-05
 7 16-2.20106066E-05 2.88796278E-05-8.49754137E-06-3.99573540E-05-6.80912600E-05
 7 17 2.13546686E-06-9.26004700E-06 1.03965932E-04-2.75516490E-02-1.10662426E-03
 7 18-1.89561538E-04-1.83149369E-04 4.45149329E-05 1.66649057E-03 5.81513212E-04
 7 19 1.23774710E-03-6.04498873E-04-1.45332099E-04 4.43772813E-05 1.00954818E-04
 7 20-1.34655877E-04-3.54965177E-05 1.50612629E-05 9.67350510E-03 3.37344434E-05
 7 21-9.23493149E-05-5.61402858E-05-9.14630973E-07-1.25811775E-04-2.65100235E-05
 7 22 2.47601960E-04-1.50382465E-04 2.41838238E-05-3.23267687E-06-2.09511469E-05
 7 23 7.43959963E-06 3.13057183E-05-2.91514026E-05 5.09011181E-06 1.17405322E-04