! FMO sample input for PhOH+(H2O)16, BLYP/LC and 6-31G* reproducing:
! FMO2-TDDFT (M. Chiba et al., J. Chem. Phys. 127 (2007) 104108).
!
!                                   published   current GAMESS/Linux
! FMO1-TDDFT S1 excitation energy     5.375         5.375
! FMO2-TDDFT S1                       5.284         5.284
! FMO1-TDDFT S2                       6.379         6.379 
! FMO2-TDDFT S2                       6.204         6.204
! FMO1-TDDFT S1 oscillator strength   0.030         0.030
! FMO1-TDDFT S2                       0.044         0.044
!
! Note that this run takes over 3 hours on a 3.2 GHz Pentium4.
!
 $contrl units=angs ispher=1 nprint=-5 dfttyp=lcblyp tddft=excite $end
 $system memory=100000000  BALTYP=NXTVAL $end
 $tddft mult=1 nstate=3 $end
 $dft NRAD=96 NTHE=12 NPHI=24 NRAD0=96 NTHE0=12 NPHI0=24 $end
 $gddi ngroup=1 parout=.t. BALTYP=NXTVAL $end
 $scf dirscf=.f. NPUNCH=0 diis=.f. soscf=.t. $end
 $basis gbasis=n31 ngauss=6 ndfunc=1 $end
 $fmoprp nprint=9 $end
 $fmo
      nbody=2
      resdim=100 rcorsd=100 iexcit(1)=1,2,0,2

      nfrag=17   nlayer=1
      icharg(1)= 0, 0, 0, 0, 0,   0, 0, 0, 0, 0,
                 0, 0, 0, 0, 0,   0, 0
      frgnam(1)= poh001, wat001, wat002, wat009, wat010,
                 wat011, wat012, wat014, wat015, wat018,
                 wat019, wat023, wat024, wat032, wat033,
                 wat049, wat055
      indat(1)= 0
                1    -13      0
               14    -16      0
               17    -19      0
               20    -22      0
               23    -25      0
               26    -28      0
               29    -31      0
               32    -34      0
               35    -37      0
               38    -40      0
               41    -43      0
               44    -46      0
               47    -49      0
               50    -52      0
               53    -55      0
               56    -58      0
               59    -61      0
 $end
 $data
  Modeled by HyperChem and optimized by amber94 force field (??)
c1
h-1 1
c-1 6
o-1 8
 $end
 $fmoxyz
      1  C            1.19200003        0.00000000        1.31200004
      2  C            1.19900000        0.00000000       -0.07000000
      3  C           -0.00500000        0.00000000       -0.76099998
      4  C           -1.20500004        0.00000000       -0.06800000
      5  C           -1.19799995        0.00000000        1.31900001
      6  C           -0.00400000        0.00000000        2.01799989
      7  O            0.05200000        0.00000000       -2.11299992
      8  H            2.12700009        0.00000000        1.84200001
      9  H            2.11800003        0.00000000       -0.62500000
     10  H           -2.13899994        0.00000000       -0.60500002
     11  H           -2.13299990        0.00000000        1.84899998
     12  H           -0.00200000        0.00000000        3.09200001
     13  H           -0.81999999        0.00000000       -2.48399997
     14  O             -3.793000         -2.288000          2.116000
     15  H             -3.811000         -2.015000          3.017000
     16  H             -2.871000         -2.351000          1.933000
     47  O             -1.889000         -3.184000          0.110000
     48  H             -2.110000         -2.491000         -0.489000
     49  H             -1.489000         -3.826000         -0.453000
     17  O              3.436000          2.110000         -1.651000
     18  H              2.591000          1.781000         -1.905000
     19  H              3.232000          2.974000         -1.333000
     26  O              1.633000          1.595000         -4.096000
     27  H              0.976000          1.618000         -3.421000
     28  H              1.821000          2.508000         -4.238000
     20  O             -1.174000         -2.804000          3.381000
     21  H             -1.650000         -2.896000          4.190000
     22  H             -0.374000         -2.391000          3.659000
     32  O             -2.854000         -0.508000          4.398000
     33  H             -2.984000          0.420000          4.309000
     34  H             -1.922000         -0.603000          4.299000
     23  O              1.666000         -2.737000         -1.740000
     24  H              2.341000         -2.088000         -1.639000
     25  H              1.092000         -2.566000         -1.012000
     41  O              0.956000         -1.690000         -4.418000
     42  H              1.522000         -2.443000         -4.450000
     43  H              1.256000         -1.238000         -3.647000
     29  O             -2.785000         -0.689000         -3.162000
     30  H             -2.291000         -1.064000         -3.872000
     31  H             -2.873000         -1.412000         -2.564000
     38  O             -0.954000          0.549000         -5.068000
     39  H             -0.246000         -0.032000         -5.287000
     40  H             -0.583000          1.399000         -5.234000
     35  O              4.746000         -0.728000          2.542000
     36  H              4.329000         -0.457000          1.741000
     37  H              5.227000          0.041000          2.799000
     53  O              5.178000         -0.209000         -0.830000
     54  H              4.314000         -0.139000         -1.199000
     55  H              5.301000         -1.140000         -0.765000
     44  O             -4.286000          1.434000         -1.256000
     45  H             -3.837000          1.079000         -2.005000
     46  H             -4.378000          0.684000         -0.694000
     50  O             -5.101000          0.220000          1.386000
     51  H             -5.598000         -0.546000          1.620000
     52  H             -4.472000          0.280000          2.085000
     56  O              0.920000          2.881000          3.098000
     57  H              1.077000          2.102000          3.604000
     58  H              1.387000          3.540000          3.583000
     59  O              2.612000          0.637000          4.392000
     60  H              2.958000         -0.079000          3.888000
     61  H              1.869000          0.248000          4.822000
 $end
