! FMO sample input for PhOH+(H2O)16, 6-31G* reproducing:
! FMO-RHF/FX (D. G. Fedorov, et al, J. Chem. Phys. 131 (2009) 171106) 
!
! In Table I, find the FMO/FX, RESPPC=2/4 column. In the header the
! ab initio value gap is 12.41 eV, in the Table the error is 0.00, so 
! the FMO/FX gap is 12.41 eV.
! To obtain the gap from this file, run totfock:
! go to ~/gamess/tools/fmo/misc, compile totfock.f (see comptot).
! Then execute it with the punch file from this run:
! totfock.x <phew16.mo.dat >phew16.mo.res
! The gap is printed in the output of totfock.x (phew16.mo.res). 
! Similarly, the virial ratio of FMO/FX is printed in the output of
! totfock.x (note that the value in the GAMESS output is that if FMO, not 
! FMO/FX. the published value can be got from the error in Table I 
! (2+1.77e-4=2.000177).
!
!                        published      current GAMESS/Linux
! HOMO-LUMO gap          12.41           12.405
! virial ratio           2.000177        2.0001766859
!
 $contrl units=angs nosym=1 nprint=-5 maxit=60 ispher=1 $end
 $system BALTYP=NXTVAL memory=220000000 $end
 $gddi ngroup=1 parout=.t. $end
 $scf  dirscf=.f. NPUNCH=0 diis=.f. soscf=.t. $end
 $intgrl nintic=-200000000 $end
 $elmom where=cocharge $end
 $basis gbasis=n31 ngauss=6 ndfunc=1 $end
 $fmoprp naodir=200 ngrfmo(1)=1 mofock=7 $end
 $fmo
      nfrag=17   nlayer=1
      respap=0 resppc=2 resdim=2
      frgnam(1)= poh001, wat001, wat002, wat009, wat010,
                 wat011, wat012, wat014, wat015, wat018,
                 wat019, wat023, wat024, wat032, wat033,
                 wat049, wat055
      indat(1)= 0
                1    -13      0
               14    -16      0
               17    -19      0
               20    -22      0
               23    -25      0
               26    -28      0
               29    -31      0
               32    -34      0
               35    -37      0
               38    -40      0
               41    -43      0
               44    -46      0
               47    -49      0
               50    -52      0
               53    -55      0
               56    -58      0
               59    -61      0
 $end
 $data
  opt FMO-RHF/6-31G* 1 mol/frg 1e-3
c1
h-1 1
c-1 6
o-1 8
 $end
 $fmoxyz
 C 6    0.7251540345   1.4392214359   1.2366769441
 C 6    0.7255205086   1.4893683458  -0.1484814798
 C 6   -0.4780017645   1.4521233379  -0.8368797033
 C 6   -1.6803683377   1.3731200804  -0.1489633012
 C 6   -1.6676761137   1.3209844575   1.2372226797
 C 6   -0.4693330544   1.3480511442   1.9386198947
 O 8   -0.4422347309   1.4956434100  -2.1938427820
 H 1    1.6605162223   1.4443962623   1.7646419498
 H 1    1.6458579342   1.5329183797  -0.7012938729
 H 1   -2.6100058957   1.3335340375  -0.6875760196
 H 1   -2.5990845490   1.2375858022   1.7665333075
 H 1   -0.4639660204   1.2734023548   3.0091882472
 H 1   -1.1655129849   0.9974435096  -2.5886309157
 O 8   -3.9571740008  -0.8008423577   2.9380394476
 H 1   -3.1978841096  -0.7826587700   3.5313465650
 H 1   -4.7180409646  -0.9076863519   3.4939686388
 O 8   -0.6488023378  -1.9642797058   0.8299290346
 H 1   -0.5636499094  -1.0184223646   0.9033450775
 H 1   -1.5755046986  -2.1098082697   0.6237116124
 O 8    3.9076935819   1.0892536860  -2.5610754585
 H 1    3.1861997990   1.3300748269  -3.1445629369
 H 1    4.3016597549   1.9039959159  -2.2784166796
 O 8    1.6102464952   1.9074911340  -4.0386540351
 H 1    0.9179508709   1.7926991166  -3.3827617390
 H 1    1.5255545635   2.7978645704  -4.3568922324
 O 8    0.2070014478  -2.6403285325   3.4308706220
 H 1    0.3742791207  -3.5677348078   3.5339854066
 H 1   -0.0866237345  -2.5064931389   2.5268897859
 O 8   -1.8182405650  -0.9245580040   4.6966403416
 H 1   -1.3189406360  -0.2029205734   5.0774965135
 H 1   -1.1674974179  -1.5649216419   4.4215638318
 O 8    1.2128213190  -2.5743635624  -1.3033426029
 H 1    1.9845949267  -2.0492305558  -1.1062353135
 H 1    0.6050532865  -2.4417799666  -0.5782253861
 O 8   -0.1256110376  -2.3142544035  -3.7031437031
 H 1   -0.2864019880  -3.2131318130  -3.9587669444
 H 1    0.3924856220  -2.3615331209  -2.8919267238
 O 8   -2.1044002595  -0.2220561925  -3.5817546873
 H 1   -1.8036375682   0.0562959977  -4.4465255281
 H 1   -1.6168231875  -1.0334584155  -3.4460914729
 O 8   -0.1037251735  -0.0115174036  -5.5952552309
 H 1    0.1340212380  -0.8398908437  -5.1870299551
 H 1    0.5589045127   0.6096180363  -5.3084152711
 O 8    3.8864866104  -0.0853160929   1.9100857072
 H 1    3.7706610732  -0.4614456849   1.0389430955
 H 1    4.7808740308  -0.2708430381   2.1632828566
 O 8    3.6932729133  -1.0821760784  -0.8115133365
 H 1    3.7190288149  -0.3158176282  -1.3921931640
 H 1    4.3504003095  -1.6795459237  -1.1465625908
 O 8   -4.4538061172  -0.0891643530  -1.7478104111
 H 1   -3.8526755171  -0.1393567105  -2.4838972844
 H 1   -4.0809812910  -0.6500502689  -1.0761375256
 O 8   -3.4513556769  -1.9617026376   0.4498212120
 H 1   -3.6869725880  -1.5323662822   1.2791952737
 H 1   -4.0655101584  -2.6766240675   0.3408248830
 O 8    0.1643457222   0.9321347775   5.6337945858
 H 1    0.9172323169   0.5396125825   5.1865646484
 H 1    0.3019605896   1.8692746429   5.6162757791
 O 8    2.0837008714  -0.5043577004   4.1643163197
 H 1    2.6466518888  -0.3109652678   3.4181103840
 H 1    1.5673123388  -1.2685053147   3.9209736926
 $end
