! FMO sample input for the products of the RAFT reaction. 
! FMO-ROMP2/3-21G (S. R. Pruitt et al, J. Chem. Theor. Comp., submitted)
!
!                        published      current GAMESS/Linux
! Total energy:         -1743.46127536  -1743.461275352
!
 $CONTRL RUNTYP=ENERGY NPRINT=-5 ISPHER=1 MAXIT=50 SCFTYP=ROHF $END
 $SYSTEM MWORDS=7 MEMDDI=450 $END
 $GDDI NGROUP=1 $END
 $MP2 CODE=DDI $END
 $SCF DIRSCF=.T. NPUNCH=0 $END
 $FMOPRP
    NGRFMO(1)=1, 1
    NPRINT=9
    MODORB=3
 $END
 $FMO
      MAXCAO=5
      MAXBND=3
      NLAYER=1
      SCFTYP(1)=ROHF
      SCFFRG(1)=RHF,ROHF,RHF
      MULT(1)=1,2,1
      MPLEVL(1)=2
      NFRAG=3
      ICHARG(1)=   0,  0,  0
      FRGNAM(1)= Frag1, Frag2, Frag3
      INDAT(1)= 0
                1     -3      7    -12     46     47      0
                4     -6     13    -15     19     20     24    -45
                0
               16    -18     21    -23     48     49      0
 $END
 $FMOHYB
 3-21G        9   5
   1 0  -0.070459   0.164841   0.000000   0.000000   0.502116
         0.466939   0.000000   0.000000   0.418036
   0 1  -0.070465   0.164857   0.473392   0.000000  -0.167359
         0.466967   0.394111   0.000000  -0.139327
   0 1  -0.070465   0.164857  -0.236695  -0.409969  -0.167359
         0.466967  -0.197055  -0.341311  -0.139327
   0 1  -0.070465   0.164857  -0.236695   0.409969  -0.167359
         0.466967  -0.197055   0.341311  -0.139327
   0 1   1.006716   0.074826   0.000000   0.000000   0.000000
        -0.143830   0.000000   0.000000  -0.000003
 MINI         5   5
   1 0  -0.104883   0.308874   0.000000   0.000000   0.521806
   0 1  -0.104883   0.308874   0.491961   0.000000  -0.173934
   0 1  -0.104883   0.308876  -0.245980  -0.426050  -0.173933
   0 1  -0.104883   0.308876  -0.245980   0.426050  -0.173933
   0 1   0.988209   0.063992   0.000000   0.000000   0.000000
 $END
 $FMOBND
        -1         4  3-21G      MINI
       -16        15  3-21G      MINI
 $END
 $DATA
 FMO calculation : RAFT_product_ai_321.inp
 C1 
 C.1-1    6
      N21 3
   
 H.1-1    1
      N21 3
   
 S.1-1   16
      N21 3
   
 N.1-1    7
      N21 3
   
 $END
 $FMOXYZ
      1      C         2.7496240100     1.8840680100    -2.4233009800
      2      C         3.0851090000     1.4197520000    -3.8610780200
      3      C         2.7336769100     3.4289510300    -2.3688399800
      4      C         1.3912420300     1.2431750300    -1.9982709900
      5      H         1.4744730000     0.1654389900    -2.1789679500
      6      H         0.6228550100     1.6188269900    -2.6828639500
      7      H         4.0465340600     1.8275549400    -4.1879901900
      8      H         3.1334850800     0.3283799900    -3.9274280100
      9      H         2.3096380200     1.7748819600    -4.5485692000
     10      H         3.6872770800     3.8315169800    -2.7251799100
     11      H         2.5567998900     3.8028209200    -1.3585519800
     12      H         1.9350210400     3.8069169500    -3.0159459100
     13      S        -0.1171296200    -0.0017750600    -0.0575778400
     14      C        -0.1100667300     0.0070008800     1.7060704200
     15      S         1.4358978300     0.0481307100     2.5629963900
     16      C         2.3494195900    -1.4556226700     1.9161944400
     17      H         2.1139557400    -1.5219608500     0.8491964300
     18      C         3.8592908400    -1.2554115100     2.1196022000
     19      C         0.9679001000     1.4687936300    -0.5301914800
     20      H         1.8475685100     1.3767948200     0.1125713700
     21      H         4.3966217000    -2.1529383700     1.7971911400
     22      H         4.2064523700    -0.4082214500     1.5224872800
     23      H         4.0948462500    -1.0785641700     3.1736288100
     24      C         0.2697306300     2.7766327900    -0.2301738400
     25      C         0.7106709500     3.5682003500     0.8395103200
     26      C         0.0774581900     4.7746563000     1.1465452900
     27      C        -1.0114113100     5.2061200100     0.3899939400
     28      C        -1.4669719900     4.4204235100    -0.6723948700
     29      C        -0.8347378400     3.2165505900    -0.9766313400
     30      H        -1.2147792600     2.6064648600    -1.7924062000
     31      H        -2.3198943100     4.7448420500    -1.2627278600
     32      H        -1.5060561900     6.1440105400     0.6270623200
     33      H         0.4364070000     5.3738346100     1.9789784000
     34      H         1.5570904000     3.2357642700     1.4352814000
     35      C        -1.3524609800    -0.0376970000     2.4426999100
     36      C        -1.4022419500    -0.5136380200     3.7814700600
     37      C        -2.5999910800    -0.5571950100     4.4813528100
     38      C        -3.7913229500    -0.1307130000     3.8840138900
     39      C        -3.7656989100     0.3418479900     2.5671439200
     40      C        -2.5748550900     0.3894270100     1.8558189900
     41      H        -0.4919520000    -0.8708260100     4.2491741200
     42      H        -2.6078820200    -0.9380549800     5.4990720700
     43      H        -4.7262039200    -0.1673710000     4.4361558000
     44      H        -4.6827931400     0.6841920000     2.0948550700
     45      H        -2.5651819700     0.7776250200     0.8437150100
     46      N         4.6094179200     0.9778109800    -0.7837230000
     47      C         3.8014268900     1.3821779500    -1.5138520000
     48      N         1.4697899800    -3.6153910200     3.1221609100
     49      C         1.8549109700    -2.6610529400     2.5824000800
 $END
       
