! 
! ***  TEST NEO-MP2 WITH NEO POINT GROUP SYMMETRY ACTIVATED.
!      ONE AUXILIARY BASIS FUNCTION CENTER USED.
!      MIXED NUCLEAR-ELECTRONIC INTEGRALS SHOULD BE 
!      RECALCULATED IN THIS JOB TO FORM A C1 LIST.
!      THEN THE RESULTANT NEO-MP2 CALCULATION. ***
!
!      [HE-H-HE]^+ (2 BASIS FUNCTION CENTERS FOR PROTON)
!
!RESULTS OF NEO-MP2 CORRECTION ARE
!              E(0)=        -5.7375795891
!              E(1)=         0.0
!            E(2ee)=        -0.0667937890
!            E(2ep)=        -0.0270918080
!            E(MP2)=        -5.8314651861
!
 $CONTRL SCFTYP=RHF RUNTYP=ENERGY 
         ICHARG=1 MULT=1 MPLEVL=2 $END 
 $SYSTEM TIMLIM=3000 MEMORY=500000 $END 
 $INTGRL SCHWRZ=.F. $END 
 $NEO    NEOSCF=DIAGZN BASNUC=DZSPDN NUNIQN=1 
         IUNIQN(1)=3 NAUXNB=0 NTAUXB=1 IAUXNB(1)=4 
         NUMULT=2 SYMNUC=.T. NUCST=1 NEMPLV=2 $END 
 $BASIS  GBASIS=N311 NGAUSS=6 NPFUNC=3 DIFFS=.f. $END 
 $GUESS  GUESS=MOREAD NORB=48 $END 
 $DATA 
  
 DNH 4

HE          2.0       .0000000000       .0000000000      -.9335000000
H           1.0       .0000000000       .0000000000      -.3500000000
 $END      
--- CLOSED SHELL ORBITALS --- GENERATED AT Mon Feb 20 08:05:42 2006
                                                                                
E(RHF)=       -5.2470323798, E(NUC)=    7.1664932838,    7 ITERS
 $VEC
 1  1 1.72389537E-01 2.91895859E-01 6.04579155E-02 0.00000000E+00 0.00000000E+00
 1  2 1.15596321E-02 0.00000000E+00 0.00000000E+00 1.71476438E-02 0.00000000E+00
 1  3 0.00000000E+00 5.02006126E-03 1.72389537E-01 2.91895859E-01 6.04579155E-02
 1  4 0.00000000E+00 0.00000000E+00-1.15596321E-02 0.00000000E+00 0.00000000E+00
 1  5-1.71476438E-02 0.00000000E+00 0.00000000E+00-5.02006126E-03 1.70895972E-01
 1  6 1.12300554E-01-5.36488960E-03 0.00000000E+00 0.00000000E+00-5.97213611E-03
 1  7 0.00000000E+00 0.00000000E+00-3.14171295E-03 0.00000000E+00 0.00000000E+00
 1  8-1.97289817E-02 1.70895972E-01 1.12300554E-01-5.36488960E-03 0.00000000E+00
 1  9 0.00000000E+00 5.97213611E-03 0.00000000E+00 0.00000000E+00 3.14171295E-03
 1 10 0.00000000E+00 0.00000000E+00 1.97289817E-02
 2  1 2.00155646E-01 3.73528765E-01 1.88299288E-01 0.00000000E+00 0.00000000E+00
 2  2 1.06301719E-02 0.00000000E+00 0.00000000E+00 3.39669015E-02 0.00000000E+00
 2  3 0.00000000E+00 1.35091161E-02-2.00155646E-01-3.73528765E-01-1.88299288E-01
 2  4 0.00000000E+00 0.00000000E+00 1.06301719E-02 0.00000000E+00 0.00000000E+00
 2  5 3.39669015E-02 0.00000000E+00 0.00000000E+00 1.35091161E-02 1.29689086E-01
 2  6 1.23785629E-01 2.10935512E-02 0.00000000E+00 0.00000000E+00-1.24834146E-02
 2  7 0.00000000E+00 0.00000000E+00 2.28709221E-02 0.00000000E+00 0.00000000E+00
 2  8 5.29131304E-02-1.29689086E-01-1.23785629E-01-2.10935512E-02 0.00000000E+00
 2  9 0.00000000E+00-1.24834146E-02 0.00000000E+00 0.00000000E+00 2.28709221E-02
 2 10 0.00000000E+00 0.00000000E+00 5.29131304E-02
 3  1 1.28126086E-01 2.92439657E-01 3.11677773E-01 0.00000000E+00 0.00000000E+00
 3  2-1.03615522E-02 0.00000000E+00 0.00000000E+00-4.57820858E-02 0.00000000E+00
 3  3 0.00000000E+00-5.49680295E-02 1.28126086E-01 2.92439657E-01 3.11677773E-01
 3  4 0.00000000E+00 0.00000000E+00 1.03615522E-02 0.00000000E+00 0.00000000E+00
 3  5 4.57820858E-02 0.00000000E+00 0.00000000E+00 5.49680295E-02-1.70670666E-01
 3  6-2.97373439E-01-8.87284801E-02 0.00000000E+00 0.00000000E+00-8.98927095E-03
 3  7 0.00000000E+00 0.00000000E+00-6.92624405E-02 0.00000000E+00 0.00000000E+00
 3  8-2.01729536E-01-1.70670666E-01-2.97373439E-01-8.87284801E-02 0.00000000E+00
 3  9 0.00000000E+00 8.98927095E-03 0.00000000E+00 0.00000000E+00 6.92624405E-02
 3 10 0.00000000E+00 0.00000000E+00 2.01729536E-01
 4  1 0.00000000E+00 0.00000000E+00 0.00000000E+00 1.24779223E-02-2.69523622E-03
 4  2 0.00000000E+00 2.20769770E-02-4.76863591E-03 0.00000000E+00 1.92789802E-01
 4  3-4.16426748E-02 0.00000000E+00 0.00000000E+00 0.00000000E+00 0.00000000E+00
 4  4 1.24779223E-02-2.69523622E-03 0.00000000E+00 2.20769770E-02-4.76863591E-03
 4  5 0.00000000E+00 1.92789802E-01-4.16426748E-02 0.00000000E+00 0.00000000E+00
 4  6 0.00000000E+00 0.00000000E+00 8.03762688E-03-1.73613064E-03 0.00000000E+00
 4  7 5.19957236E-02-1.12310972E-02 0.00000000E+00 3.10753302E-01-6.71228382E-02
 4  8 0.00000000E+00 0.00000000E+00 0.00000000E+00 0.00000000E+00 8.03762688E-03
 4  9-1.73613064E-03 0.00000000E+00 5.19957236E-02-1.12310972E-02 0.00000000E+00
 4 10 3.10753302E-01-6.71228382E-02 0.00000000E+00
 5  1 0.00000000E+00 0.00000000E+00 0.00000000E+00 2.69523622E-03 1.24779223E-02
 5  2 0.00000000E+00 4.76863591E-03 2.20769770E-02 0.00000000E+00 4.16426748E-02
 5  3 1.92789802E-01 0.00000000E+00 0.00000000E+00 0.00000000E+00 0.00000000E+00
 5  4 2.69523622E-03 1.24779223E-02 0.00000000E+00 4.76863591E-03 2.20769770E-02
 5  5 0.00000000E+00 4.16426748E-02 1.92789802E-01 0.00000000E+00 0.00000000E+00
 5  6 0.00000000E+00 0.00000000E+00 1.73613064E-03 8.03762688E-03 0.00000000E+00
 5  7 1.12310972E-02 5.19957236E-02 0.00000000E+00 6.71228382E-02 3.10753302E-01
 5  8 0.00000000E+00 0.00000000E+00 0.00000000E+00 0.00000000E+00 1.73613064E-03
 5  9 8.03762688E-03 0.00000000E+00 1.12310972E-02 5.19957236E-02 0.00000000E+00
 5 10 6.71228382E-02 3.10753302E-01 0.00000000E+00
 6  1-4.23904439E-02-1.42932048E-01-1.01459055E+00 0.00000000E+00 0.00000000E+00
 6  2-3.48224576E-03 0.00000000E+00 0.00000000E+00-8.54385233E-02 0.00000000E+00
 6  3 0.00000000E+00-1.01428423E-01-4.23904439E-02-1.42932048E-01-1.01459055E+00
 6  4 0.00000000E+00 0.00000000E+00 3.48224576E-03 0.00000000E+00 0.00000000E+00
 6  5 8.54385233E-02 0.00000000E+00 0.00000000E+00 1.01428423E-01-6.55463433E-02
 6  6 3.57516971E-01 1.05511707E+00 0.00000000E+00 0.00000000E+00 5.98144928E-03
 6  7 0.00000000E+00 0.00000000E+00-7.00030294E-02 0.00000000E+00 0.00000000E+00
 6  8-5.37358019E-01-6.55463433E-02 3.57516971E-01 1.05511707E+00 0.00000000E+00
 6  9 0.00000000E+00-5.98144928E-03 0.00000000E+00 0.00000000E+00 7.00030294E-02
 6 10 0.00000000E+00 0.00000000E+00 5.37358019E-01
 7  1 3.68417967E-02-1.79381519E-02-1.47660959E+00 0.00000000E+00 0.00000000E+00
 7  2 4.88647326E-03 0.00000000E+00 0.00000000E+00-5.02582632E-02 0.00000000E+00
 7  3 0.00000000E+00-1.87371016E-01-3.68417967E-02 1.79381519E-02 1.47660959E+00
 7  4 0.00000000E+00 0.00000000E+00 4.88647326E-03 0.00000000E+00 0.00000000E+00
 7  5-5.02582632E-02 0.00000000E+00 0.00000000E+00-1.87371016E-01 6.94831459E-02
 7  6-2.43917359E-01-5.89503926E+00 0.00000000E+00 0.00000000E+00 1.27118683E-03
 7  7 0.00000000E+00 0.00000000E+00-2.73168081E-01 0.00000000E+00 0.00000000E+00
 7  8-1.86345564E+00-6.94831459E-02 2.43917359E-01 5.89503926E+00 0.00000000E+00
 7  9 0.00000000E+00 1.27118683E-03 0.00000000E+00 0.00000000E+00-2.73168081E-01
 7 10 0.00000000E+00 0.00000000E+00-1.86345564E+00
 8  1 0.00000000E+00 0.00000000E+00 0.00000000E+00 4.45982244E-03-1.60189881E-02
 8  2 0.00000000E+00 5.05602029E-03-1.81604381E-02 0.00000000E+00 2.76393959E-01
 8  3-9.92764086E-01 0.00000000E+00 0.00000000E+00 0.00000000E+00 0.00000000E+00
 8  4-4.45982244E-03 1.60189881E-02 0.00000000E+00-5.05602029E-03 1.81604381E-02
 8  5 0.00000000E+00-2.76393959E-01 9.92764086E-01 0.00000000E+00 0.00000000E+00
 8  6 0.00000000E+00 0.00000000E+00 5.75856330E-04-2.06838632E-03 0.00000000E+00
 8  7 1.34820119E-02-4.84252887E-02 0.00000000E+00-1.25656050E-01 4.51336977E-01
 8  8 0.00000000E+00 0.00000000E+00 0.00000000E+00 0.00000000E+00-5.75856330E-04
 8  9 2.06838632E-03 0.00000000E+00-1.34820119E-02 4.84252887E-02 0.00000000E+00
 8 10 1.25656050E-01-4.51336977E-01 0.00000000E+00
 9  1 0.00000000E+00 0.00000000E+00 0.00000000E+00-1.60189881E-02-4.45982244E-03
 9  2 0.00000000E+00-1.81604381E-02-5.05602029E-03 0.00000000E+00-9.92764086E-01
 9  3-2.76393959E-01 0.00000000E+00 0.00000000E+00 0.00000000E+00 0.00000000E+00
 9  4 1.60189881E-02 4.45982244E-03 0.00000000E+00 1.81604381E-02 5.05602029E-03
 9  5 0.00000000E+00 9.92764086E-01 2.76393959E-01 0.00000000E+00 0.00000000E+00
 9  6 0.00000000E+00 0.00000000E+00-2.06838632E-03-5.75856330E-04 0.00000000E+00
 9  7-4.84252887E-02-1.34820119E-02 0.00000000E+00 4.51336977E-01 1.25656050E-01
 9  8 0.00000000E+00 0.00000000E+00 0.00000000E+00 0.00000000E+00 2.06838632E-03
 9  9 5.75856330E-04 0.00000000E+00 4.84252887E-02 1.34820119E-02 0.00000000E+00
 9 10-4.51336977E-01-1.25656050E-01 0.00000000E+00
10  1 5.79089380E-02 2.51760655E-01 6.07326756E-01 0.00000000E+00 0.00000000E+00
10  2 1.67054923E-03 0.00000000E+00 0.00000000E+00 3.00559824E-02 0.00000000E+00
10  3 0.00000000E+00 1.56438711E+00 5.79089380E-02 2.51760655E-01 6.07326756E-01
10  4 0.00000000E+00 0.00000000E+00-1.67054923E-03 0.00000000E+00 0.00000000E+00
10  5-3.00559824E-02 0.00000000E+00 0.00000000E+00-1.56438711E+00-9.52013735E-02
10  6-1.24084789E+00 1.72319972E-02 0.00000000E+00 0.00000000E+00-1.50528953E-02
10  7 0.00000000E+00 0.00000000E+00 4.83911552E-02 0.00000000E+00 0.00000000E+00
10  8-9.81609674E-01-9.52013735E-02-1.24084789E+00 1.72319972E-02 0.00000000E+00
10  9 0.00000000E+00 1.50528953E-02 0.00000000E+00 0.00000000E+00-4.83911552E-02
10 10 0.00000000E+00 0.00000000E+00 9.81609674E-01
11  1 1.19337073E-02 5.80650001E-02-4.52700678E+00 0.00000000E+00 0.00000000E+00
11  2-6.60298374E-03 0.00000000E+00 0.00000000E+00-1.92604326E-01 0.00000000E+00
11  3 0.00000000E+00-2.42967021E+00-1.19337073E-02-5.80650001E-02 4.52700678E+00
11  4 0.00000000E+00 0.00000000E+00-6.60298374E-03 0.00000000E+00 0.00000000E+00
11  5-1.92604326E-01 0.00000000E+00 0.00000000E+00-2.42967021E+00-9.04732099E-02
11  6 9.40136454E-01-9.51621811E+00 0.00000000E+00 0.00000000E+00 3.58275219E-03
11  7 0.00000000E+00 0.00000000E+00-1.27035223E-01 0.00000000E+00 0.00000000E+00
11  8-3.82620797E+00 9.04732099E-02-9.40136454E-01 9.51621811E+00 0.00000000E+00
11  9 0.00000000E+00 3.58275219E-03 0.00000000E+00 0.00000000E+00-1.27035223E-01
11 10 0.00000000E+00 0.00000000E+00-3.82620797E+00
12  1 0.00000000E+00 0.00000000E+00 0.00000000E+00 8.93318772E-03 5.79768521E-03
12  2 0.00000000E+00-3.67112140E-02-2.38257685E-02 0.00000000E+00 1.55970811E+00
12  3 1.01225866E+00 0.00000000E+00 0.00000000E+00 0.00000000E+00 0.00000000E+00
12  4 8.93318772E-03 5.79768521E-03 0.00000000E+00-3.67112140E-02-2.38257685E-02
12  5 0.00000000E+00 1.55970811E+00 1.01225866E+00 0.00000000E+00 0.00000000E+00
12  6 0.00000000E+00 0.00000000E+00-5.50065114E-03-3.56995115E-03 0.00000000E+00
12  7-1.40180099E-02-9.09776122E-03 0.00000000E+00-1.25669277E+00-8.15600131E-01
12  8 0.00000000E+00 0.00000000E+00 0.00000000E+00 0.00000000E+00-5.50065114E-03
12  9-3.56995115E-03 0.00000000E+00-1.40180099E-02-9.09776122E-03 0.00000000E+00
12 10-1.25669277E+00-8.15600131E-01 0.00000000E+00
13  1 0.00000000E+00 0.00000000E+00 0.00000000E+00-5.79768521E-03 8.93318772E-03
13  2 0.00000000E+00 2.38257685E-02-3.67112140E-02 0.00000000E+00-1.01225866E+00
13  3 1.55970811E+00 0.00000000E+00 0.00000000E+00 0.00000000E+00 0.00000000E+00
13  4-5.79768521E-03 8.93318772E-03 0.00000000E+00 2.38257685E-02-3.67112140E-02
13  5 0.00000000E+00-1.01225866E+00 1.55970811E+00 0.00000000E+00 0.00000000E+00
13  6 0.00000000E+00 0.00000000E+00 3.56995115E-03-5.50065114E-03 0.00000000E+00
13  7 9.09776122E-03-1.40180099E-02 0.00000000E+00 8.15600131E-01-1.25669277E+00
13  8 0.00000000E+00 0.00000000E+00 0.00000000E+00 0.00000000E+00 3.56995115E-03
13  9-5.50065114E-03 0.00000000E+00 9.09776122E-03-1.40180099E-02 0.00000000E+00
13 10 8.15600131E-01-1.25669277E+00 0.00000000E+00
14  1-7.13321417E-02-5.76861920E-01-7.10461274E+00 0.00000000E+00 0.00000000E+00
14  2-1.70876254E-02 0.00000000E+00 0.00000000E+00-3.04533226E-01 0.00000000E+00
14  3 0.00000000E+00-7.27165742E-01 7.13321417E-02 5.76861920E-01 7.10461274E+00
14  4 0.00000000E+00 0.00000000E+00-1.70876254E-02 0.00000000E+00 0.00000000E+00
14  5-3.04533226E-01 0.00000000E+00 0.00000000E+00-7.27165742E-01-4.48353258E-02
14  6-2.38477038E+00-1.10072245E+01 0.00000000E+00 0.00000000E+00 2.18959947E-02
14  7 0.00000000E+00 0.00000000E+00-9.28891408E-01 0.00000000E+00 0.00000000E+00
14  8-7.99496087E+00 4.48353258E-02 2.38477038E+00 1.10072245E+01 0.00000000E+00
14  9 0.00000000E+00 2.18959947E-02 0.00000000E+00 0.00000000E+00-9.28891408E-01
14 10 0.00000000E+00 0.00000000E+00-7.99496087E+00
15  1-5.51244497E-02-9.09323789E-02 5.79133246E+00 0.00000000E+00 0.00000000E+00
15  2-3.02277139E-02 0.00000000E+00 0.00000000E+00 2.85996411E-01 0.00000000E+00
15  3 0.00000000E+00-7.50437231E-01-5.51244497E-02-9.09323789E-02 5.79133246E+00
15  4 0.00000000E+00 0.00000000E+00 3.02277139E-02 0.00000000E+00 0.00000000E+00
15  5-2.85996411E-01 0.00000000E+00 0.00000000E+00 7.50437231E-01-1.55007133E-01
15  6-3.86568074E+00-1.64479407E+00 0.00000000E+00 0.00000000E+00-1.57612181E-02
15  7 0.00000000E+00 0.00000000E+00 2.57662665E-01 0.00000000E+00 0.00000000E+00
15  8 5.22319893E+00-1.55007133E-01-3.86568074E+00-1.64479407E+00 0.00000000E+00
15  9 0.00000000E+00 1.57612181E-02 0.00000000E+00 0.00000000E+00-2.57662665E-01
15 10 0.00000000E+00 0.00000000E+00-5.22319893E+00
16  1 0.00000000E+00 0.00000000E+00 0.00000000E+00 3.91859734E-03-9.87880696E-04
16  2 0.00000000E+00 1.06308797E-01-2.68005103E-02 0.00000000E+00-3.95695310E+00
16  3 9.97550205E-01 0.00000000E+00 0.00000000E+00 0.00000000E+00 0.00000000E+00
16  4-3.91859734E-03 9.87880696E-04 0.00000000E+00-1.06308797E-01 2.68005103E-02
16  5 0.00000000E+00 3.95695310E+00-9.97550205E-01 0.00000000E+00 0.00000000E+00
16  6 0.00000000E+00 0.00000000E+00 1.21024676E-02-3.05103919E-03 0.00000000E+00
16  7-3.74625994E-02 9.44434336E-03 0.00000000E+00 8.51046467E+00-2.14549315E+00
16  8 0.00000000E+00 0.00000000E+00 0.00000000E+00 0.00000000E+00-1.21024676E-02
16  9 3.05103919E-03 0.00000000E+00 3.74625994E-02-9.44434336E-03 0.00000000E+00
16 10-8.51046467E+00 2.14549315E+00 0.00000000E+00
17  1 0.00000000E+00 0.00000000E+00 0.00000000E+00-9.87880696E-04-3.91859734E-03
17  2 0.00000000E+00-2.68005103E-02-1.06308797E-01 0.00000000E+00 9.97550205E-01
17  3 3.95695310E+00 0.00000000E+00 0.00000000E+00 0.00000000E+00 0.00000000E+00
17  4 9.87880696E-04 3.91859734E-03 0.00000000E+00 2.68005103E-02 1.06308797E-01
17  5 0.00000000E+00-9.97550205E-01-3.95695310E+00 0.00000000E+00 0.00000000E+00
17  6 0.00000000E+00 0.00000000E+00-3.05103919E-03-1.21024676E-02 0.00000000E+00
17  7 9.44434336E-03 3.74625994E-02 0.00000000E+00-2.14549315E+00-8.51046467E+00
17  8 0.00000000E+00 0.00000000E+00 0.00000000E+00 0.00000000E+00 3.05103919E-03
17  9 1.21024676E-02 0.00000000E+00-9.44434336E-03-3.74625994E-02 0.00000000E+00
17 10 2.14549315E+00 8.51046467E+00 0.00000000E+00
18  1 7.66772745E-02 1.90356572E-01 1.12238962E+01 0.00000000E+00 0.00000000E+00
18  2-3.82213003E-02 0.00000000E+00 0.00000000E+00 1.04037560E-01 0.00000000E+00
18  3 0.00000000E+00 3.23164528E+00-7.66772745E-02-1.90356572E-01-1.12238962E+01
18  4 0.00000000E+00 0.00000000E+00-3.82213003E-02 0.00000000E+00 0.00000000E+00
18  5 1.04037560E-01 0.00000000E+00 0.00000000E+00 3.23164528E+00-1.99406725E-01
18  6-5.76582301E+00 8.35784003E+00 0.00000000E+00 0.00000000E+00 5.41336992E-03
18  7 0.00000000E+00 0.00000000E+00 8.04487205E-03 0.00000000E+00 0.00000000E+00
18  8 6.38748336E+00 1.99406725E-01 5.76582301E+00-8.35784003E+00 0.00000000E+00
18  9 0.00000000E+00 5.41336992E-03 0.00000000E+00 0.00000000E+00 8.04487205E-03
18 10 0.00000000E+00 0.00000000E+00 6.38748336E+00
19  1-7.91907324E-02-7.32547137E-01-5.97366595E-01 0.00000000E+00 0.00000000E+00
19  2-1.03489343E-02 0.00000000E+00 0.00000000E+00 4.33581488E-02 0.00000000E+00
19  3 0.00000000E+00 2.16997493E+00-7.91907324E-02-7.32547137E-01-5.97366595E-01
19  4 0.00000000E+00 0.00000000E+00 1.03489343E-02 0.00000000E+00 0.00000000E+00
19  5-4.33581488E-02 0.00000000E+00 0.00000000E+00-2.16997493E+00-1.39308828E-02
19  6 1.30789039E+00-1.73139332E-01 0.00000000E+00 0.00000000E+00-9.76309618E-03
19  7 0.00000000E+00 0.00000000E+00 1.20006507E-01 0.00000000E+00 0.00000000E+00
19  8-5.44435356E+00-1.39308828E-02 1.30789039E+00-1.73139332E-01 0.00000000E+00
19  9 0.00000000E+00 9.76309618E-03 0.00000000E+00 0.00000000E+00-1.20006507E-01
19 10 0.00000000E+00 0.00000000E+00 5.44435356E+00
20  1 0.00000000E+00 0.00000000E+00 0.00000000E+00 1.03536074E-02-6.88075794E-04
20  2 0.00000000E+00-3.69312319E-01 2.45436066E-02 0.00000000E+00-1.86740931E-01
20  3 1.24103522E-02 0.00000000E+00 0.00000000E+00 0.00000000E+00 0.00000000E+00
20  4 1.03536074E-02-6.88075794E-04 0.00000000E+00-3.69312319E-01 2.45436066E-02
20  5 0.00000000E+00-1.86740931E-01 1.24103522E-02 0.00000000E+00 0.00000000E+00
20  6 0.00000000E+00 0.00000000E+00 3.01170212E-02-2.00150464E-03 0.00000000E+00
20  7-5.39835452E-01 3.58761630E-02 0.00000000E+00 6.36560814E-01-4.23042974E-02
20  8 0.00000000E+00 0.00000000E+00 0.00000000E+00 0.00000000E+00 3.01170212E-02
20  9-2.00150464E-03 0.00000000E+00-5.39835452E-01 3.58761630E-02 0.00000000E+00
20 10 6.36560814E-01-4.23042974E-02 0.00000000E+00
21  1 0.00000000E+00 0.00000000E+00 0.00000000E+00 6.88075794E-04 1.03536074E-02
21  2 0.00000000E+00-2.45436066E-02-3.69312319E-01 0.00000000E+00-1.24103522E-02
21  3-1.86740931E-01 0.00000000E+00 0.00000000E+00 0.00000000E+00 0.00000000E+00
21  4 6.88075794E-04 1.03536074E-02 0.00000000E+00-2.45436066E-02-3.69312319E-01
21  5 0.00000000E+00-1.24103522E-02-1.86740931E-01 0.00000000E+00 0.00000000E+00
21  6 0.00000000E+00 0.00000000E+00 2.00150464E-03 3.01170212E-02 0.00000000E+00
21  7-3.58761630E-02-5.39835452E-01 0.00000000E+00 4.23042974E-02 6.36560814E-01
21  8 0.00000000E+00 0.00000000E+00 0.00000000E+00 0.00000000E+00 2.00150464E-03
21  9 3.01170212E-02 0.00000000E+00-3.58761630E-02-5.39835452E-01 0.00000000E+00
21 10 4.23042974E-02 6.36560814E-01 0.00000000E+00
22  1 0.00000000E+00 0.00000000E+00 0.00000000E+00 1.97677480E-02-3.88279679E-03
22  2 0.00000000E+00-7.18180149E-01 1.41065517E-01 0.00000000E+00-1.25651941E+00
22  3 2.46806542E-01 0.00000000E+00 0.00000000E+00 0.00000000E+00 0.00000000E+00
22  4-1.97677480E-02 3.88279679E-03 0.00000000E+00 7.18180149E-01-1.41065517E-01
22  5 0.00000000E+00 1.25651941E+00-2.46806542E-01 0.00000000E+00 0.00000000E+00
22  6 0.00000000E+00 0.00000000E+00 1.64995199E-02-3.24084883E-03 0.00000000E+00
22  7-3.55746681E-01 6.98760463E-02 0.00000000E+00 4.21854392E+00-8.28609755E-01
22  8 0.00000000E+00 0.00000000E+00 0.00000000E+00 0.00000000E+00-1.64995199E-02
22  9 3.24084883E-03 0.00000000E+00 3.55746681E-01-6.98760463E-02 0.00000000E+00
22 10-4.21854392E+00 8.28609755E-01 0.00000000E+00
23  1 0.00000000E+00 0.00000000E+00 0.00000000E+00-3.88279679E-03-1.97677480E-02
23  2 0.00000000E+00 1.41065517E-01 7.18180149E-01 0.00000000E+00 2.46806542E-01
23  3 1.25651941E+00 0.00000000E+00 0.00000000E+00 0.00000000E+00 0.00000000E+00
23  4 3.88279679E-03 1.97677480E-02 0.00000000E+00-1.41065517E-01-7.18180149E-01
23  5 0.00000000E+00-2.46806542E-01-1.25651941E+00 0.00000000E+00 0.00000000E+00
23  6 0.00000000E+00 0.00000000E+00-3.24084883E-03-1.64995199E-02 0.00000000E+00
23  7 6.98760463E-02 3.55746681E-01 0.00000000E+00-8.28609755E-01-4.21854392E+00
23  8 0.00000000E+00 0.00000000E+00 0.00000000E+00 0.00000000E+00 3.24084883E-03
23  9 1.64995199E-02 0.00000000E+00-6.98760463E-02-3.55746681E-01 0.00000000E+00
23 10 8.28609755E-01 4.21854392E+00 0.00000000E+00
24  1-1.52815140E-01 4.48305864E-02 1.95519021E+01 0.00000000E+00 0.00000000E+00
24  2-2.81110462E-04 0.00000000E+00 0.00000000E+00 1.13510578E+00 0.00000000E+00
24  3 0.00000000E+00 3.13081318E+00 1.52815140E-01-4.48305864E-02-1.95519021E+01
24  4 0.00000000E+00 0.00000000E+00-2.81110462E-04 0.00000000E+00 0.00000000E+00
24  5 1.13510578E+00 0.00000000E+00 0.00000000E+00 3.13081318E+00 4.68662415E-02
24  6 9.66789978E-02 1.31026611E+01 0.00000000E+00 0.00000000E+00-3.06736719E-02
24  7 0.00000000E+00 0.00000000E+00 2.44921696E+00 0.00000000E+00 0.00000000E+00
24  8 1.38463492E+01-4.68662415E-02-9.66789978E-02-1.31026611E+01 0.00000000E+00
24  9 0.00000000E+00-3.06736719E-02 0.00000000E+00 0.00000000E+00 2.44921696E+00
24 10 0.00000000E+00 0.00000000E+00 1.38463492E+01
25  1 0.00000000E+00 0.00000000E+00 0.00000000E+00 2.53902012E-02 4.31106125E-03
25  2 0.00000000E+00-9.54410788E-01-1.62051625E-01 0.00000000E+00 1.02456759E+00
25  3 1.73963712E-01 0.00000000E+00 0.00000000E+00 0.00000000E+00 0.00000000E+00
25  4 2.53902012E-02 4.31106125E-03 0.00000000E+00-9.54410788E-01-1.62051625E-01
25  5 0.00000000E+00 1.02456759E+00 1.73963712E-01 0.00000000E+00 0.00000000E+00
25  6 0.00000000E+00 0.00000000E+00-2.70767300E-02-4.59742089E-03 0.00000000E+00
25  7 7.10329870E-01 1.20608559E-01 0.00000000E+00-8.35408358E-01-1.41845926E-01
25  8 0.00000000E+00 0.00000000E+00 0.00000000E+00 0.00000000E+00-2.70767300E-02
25  9-4.59742089E-03 0.00000000E+00 7.10329870E-01 1.20608559E-01 0.00000000E+00
25 10-8.35408358E-01-1.41845926E-01 0.00000000E+00
26  1 0.00000000E+00 0.00000000E+00 0.00000000E+00-4.31106125E-03 2.53902012E-02
26  2 0.00000000E+00 1.62051625E-01-9.54410788E-01 0.00000000E+00-1.73963712E-01
26  3 1.02456759E+00 0.00000000E+00 0.00000000E+00 0.00000000E+00 0.00000000E+00
26  4-4.31106125E-03 2.53902012E-02 0.00000000E+00 1.62051625E-01-9.54410788E-01
26  5 0.00000000E+00-1.73963712E-01 1.02456759E+00 0.00000000E+00 0.00000000E+00
26  6 0.00000000E+00 0.00000000E+00 4.59742089E-03-2.70767300E-02 0.00000000E+00
26  7-1.20608559E-01 7.10329870E-01 0.00000000E+00 1.41845926E-01-8.35408358E-01
26  8 0.00000000E+00 0.00000000E+00 0.00000000E+00 0.00000000E+00 4.59742089E-03
26  9-2.70767300E-02 0.00000000E+00-1.20608559E-01 7.10329870E-01 0.00000000E+00
26 10 1.41845926E-01-8.35408358E-01 0.00000000E+00
27  1 3.24906917E-02-1.47434734E+00-6.51060206E+00 0.00000000E+00 0.00000000E+00
27  2-2.54207685E-03 0.00000000E+00 0.00000000E+00-9.92279340E-01 0.00000000E+00
27  3 0.00000000E+00-1.52804296E-01 3.24906917E-02-1.47434734E+00-6.51060206E+00
27  4 0.00000000E+00 0.00000000E+00 2.54207685E-03 0.00000000E+00 0.00000000E+00
27  5 9.92279340E-01 0.00000000E+00 0.00000000E+00 1.52804296E-01-3.93571912E-01
27  6 7.28854319E+00 8.21123379E-01 0.00000000E+00 0.00000000E+00 5.60360576E-02
27  7 0.00000000E+00 0.00000000E+00-1.42489020E+00 0.00000000E+00 0.00000000E+00
27  8-4.48878535E+00-3.93571912E-01 7.28854319E+00 8.21123379E-01 0.00000000E+00
27  9 0.00000000E+00-5.60360576E-02 0.00000000E+00 0.00000000E+00 1.42489020E+00
27 10 0.00000000E+00 0.00000000E+00 4.48878535E+00
28  1 1.70068155E-02 3.95662041E-02 3.48012546E+00 0.00000000E+00 0.00000000E+00
28  2-2.55812297E-02 0.00000000E+00 0.00000000E+00 1.34597059E+00 0.00000000E+00
28  3 0.00000000E+00-3.52188229E-01 1.70068155E-02 3.95662041E-02 3.48012546E+00
28  4 0.00000000E+00 0.00000000E+00 2.55812297E-02 0.00000000E+00 0.00000000E+00
28  5-1.34597059E+00 0.00000000E+00 0.00000000E+00 3.52188229E-01-1.49531331E-01
28  6-2.89996301E+00-6.52169714E-01 0.00000000E+00 0.00000000E+00 2.40212671E-03
28  7 0.00000000E+00 0.00000000E+00-2.82829599E-02 0.00000000E+00 0.00000000E+00
28  8 2.21564741E+00-1.49531331E-01-2.89996301E+00-6.52169714E-01 0.00000000E+00
28  9 0.00000000E+00-2.40212671E-03 0.00000000E+00 0.00000000E+00 2.82829599E-02
28 10 0.00000000E+00 0.00000000E+00-2.21564741E+00
29  1 1.84567799E-02 9.53886433E-01-9.00249955E+00 0.00000000E+00 0.00000000E+00
29  2 4.17835367E-02 0.00000000E+00 0.00000000E+00-4.83901265E-01 0.00000000E+00
29  3 0.00000000E+00-2.29087580E+00-1.84567799E-02-9.53886433E-01 9.00249955E+00
29  4 0.00000000E+00 0.00000000E+00 4.17835367E-02 0.00000000E+00 0.00000000E+00
29  5-4.83901265E-01 0.00000000E+00 0.00000000E+00-2.29087580E+00-5.68601268E-01
29  6 1.22945957E+01-1.33017586E+00 0.00000000E+00 0.00000000E+00-3.90175596E-02
29  7 0.00000000E+00 0.00000000E+00 2.19627713E+00 0.00000000E+00 0.00000000E+00
29  8-1.96311479E+00 5.68601268E-01-1.22945957E+01 1.33017586E+00 0.00000000E+00
29  9 0.00000000E+00-3.90175596E-02 0.00000000E+00 0.00000000E+00 2.19627713E+00
29 10 0.00000000E+00 0.00000000E+00-1.96311479E+00
30  1 0.00000000E+00 0.00000000E+00 0.00000000E+00 2.61676488E-02 2.92184886E-02
30  2 0.00000000E+00-6.89637178E-01-7.70040752E-01 0.00000000E+00 9.13421103E-01
30  3 1.01991525E+00 0.00000000E+00 0.00000000E+00 0.00000000E+00 0.00000000E+00
30  4-2.61676488E-02-2.92184886E-02 0.00000000E+00 6.89637178E-01 7.70040752E-01
30  5 0.00000000E+00-9.13421103E-01-1.01991525E+00 0.00000000E+00 0.00000000E+00
30  6 0.00000000E+00 0.00000000E+00-3.75286694E-02-4.19040703E-02 0.00000000E+00
30  7 1.14455648E+00 1.27799829E+00 0.00000000E+00-1.82610187E+00-2.03900385E+00
30  8 0.00000000E+00 0.00000000E+00 0.00000000E+00 0.00000000E+00 3.75286694E-02
30  9 4.19040703E-02 0.00000000E+00-1.14455648E+00-1.27799829E+00 0.00000000E+00
30 10 1.82610187E+00 2.03900385E+00 0.00000000E+00
31  1 0.00000000E+00 0.00000000E+00 0.00000000E+00 2.92184886E-02-2.61676488E-02
31  2 0.00000000E+00-7.70040752E-01 6.89637178E-01 0.00000000E+00 1.01991525E+00
31  3-9.13421103E-01 0.00000000E+00 0.00000000E+00 0.00000000E+00 0.00000000E+00
31  4-2.92184886E-02 2.61676488E-02 0.00000000E+00 7.70040752E-01-6.89637178E-01
31  5 0.00000000E+00-1.01991525E+00 9.13421103E-01 0.00000000E+00 0.00000000E+00
31  6 0.00000000E+00 0.00000000E+00-4.19040703E-02 3.75286694E-02 0.00000000E+00
31  7 1.27799829E+00-1.14455648E+00 0.00000000E+00-2.03900385E+00 1.82610187E+00
31  8 0.00000000E+00 0.00000000E+00 0.00000000E+00 0.00000000E+00 4.19040703E-02
31  9-3.75286694E-02 0.00000000E+00-1.27799829E+00 1.14455648E+00 0.00000000E+00
31 10 2.03900385E+00-1.82610187E+00 0.00000000E+00
32  1 4.71815278E-02 6.14027169E+00 1.62232252E+01 0.00000000E+00 0.00000000E+00
32  2 2.62070829E-02 0.00000000E+00 0.00000000E+00 4.66908936E+00 0.00000000E+00
32  3 0.00000000E+00 1.97189656E+00-4.71815278E-02-6.14027169E+00-1.62232252E+01
32  4 0.00000000E+00 0.00000000E+00 2.62070829E-02 0.00000000E+00 0.00000000E+00
32  5 4.66908936E+00 0.00000000E+00 0.00000000E+00 1.97189656E+00-6.76525673E-01
32  6-2.93449832E+00 6.42829376E+00 0.00000000E+00 0.00000000E+00-8.37082816E-02
32  7 0.00000000E+00 0.00000000E+00 9.29725631E+00 0.00000000E+00 0.00000000E+00
32  8 9.27619752E+00 6.76525673E-01 2.93449832E+00-6.42829376E+00 0.00000000E+00
32  9 0.00000000E+00-8.37082816E-02 0.00000000E+00 0.00000000E+00 9.29725631E+00
32 10 0.00000000E+00 0.00000000E+00 9.27619752E+00
33  1 4.35965318E-01 1.57007561E+00 3.22119923E+00 0.00000000E+00 0.00000000E+00
33  2-1.92810750E-01 0.00000000E+00 0.00000000E+00 1.66045379E+00 0.00000000E+00
33  3 0.00000000E+00 2.21022878E-01 4.35965318E-01 1.57007561E+00 3.22119923E+00
33  4 0.00000000E+00 0.00000000E+00 1.92810750E-01 0.00000000E+00 0.00000000E+00
33  5-1.66045379E+00 0.00000000E+00 0.00000000E+00-2.21022878E-01-1.58544930E+00
33  6-3.20032429E+00-5.16748281E-01 0.00000000E+00 0.00000000E+00-5.48390410E-02
33  7 0.00000000E+00 0.00000000E+00 1.92153468E+00 0.00000000E+00 0.00000000E+00
33  8 9.89130986E-01-1.58544930E+00-3.20032429E+00-5.16748281E-01 0.00000000E+00
33  9 0.00000000E+00 5.48390410E-02 0.00000000E+00 0.00000000E+00-1.92153468E+00
33 10 0.00000000E+00 0.00000000E+00-9.89130986E-01
34  1 6.48121949E-02 7.87824079E+00 7.28683410E+00 0.00000000E+00 0.00000000E+00
34  2 3.94818842E-02 0.00000000E+00 0.00000000E+00 3.61275235E+00 0.00000000E+00
34  3 0.00000000E+00 5.52924030E-01-6.48121949E-02-7.87824079E+00-7.28683410E+00
34  4 0.00000000E+00 0.00000000E+00 3.94818842E-02 0.00000000E+00 0.00000000E+00
34  5 3.61275235E+00 0.00000000E+00 0.00000000E+00 5.52924030E-01 1.52639268E+00
34  6 5.39503048E+00 4.00835948E+00 0.00000000E+00 0.00000000E+00-1.29611449E-01
34  7 0.00000000E+00 0.00000000E+00 1.34613013E+01 0.00000000E+00 0.00000000E+00
34  8 5.61651731E+00-1.52639268E+00-5.39503048E+00-4.00835948E+00 0.00000000E+00
34  9 0.00000000E+00-1.29611449E-01 0.00000000E+00 0.00000000E+00 1.34613013E+01
34 10 0.00000000E+00 0.00000000E+00 5.61651731E+00
35  1 6.22986803E-01-1.28703064E+00-9.14507020E-01 0.00000000E+00 0.00000000E+00
35  2 2.95592184E-01 0.00000000E+00 0.00000000E+00-8.53662830E-01 0.00000000E+00
35  3 0.00000000E+00 6.34064574E-01 6.22986803E-01-1.28703064E+00-9.14507020E-01
35  4 0.00000000E+00 0.00000000E+00-2.95592184E-01 0.00000000E+00 0.00000000E+00
35  5 8.53662830E-01 0.00000000E+00 0.00000000E+00-6.34064574E-01 3.30773259E-01
35  6 1.39732915E+00 3.06109139E-02 0.00000000E+00 0.00000000E+00-5.73139945E-01
35  7 0.00000000E+00 0.00000000E+00 1.56623064E-01 0.00000000E+00 0.00000000E+00
35  8-1.92232106E+00 3.30773259E-01 1.39732915E+00 3.06109139E-02 0.00000000E+00
35  9 0.00000000E+00 5.73139945E-01 0.00000000E+00 0.00000000E+00-1.56623064E-01
35 10 0.00000000E+00 0.00000000E+00 1.92232106E+00
36  1 0.00000000E+00 0.00000000E+00 0.00000000E+00-3.14064015E-01 5.93863778E-01
36  2 0.00000000E+00 2.11529036E-01-3.99980344E-01 0.00000000E+00-4.11926161E-02
36  3 7.78911353E-02 0.00000000E+00 0.00000000E+00 0.00000000E+00 0.00000000E+00
36  4-3.14064015E-01 5.93863778E-01 0.00000000E+00 2.11529036E-01-3.99980344E-01
36  5 0.00000000E+00-4.11926161E-02 7.78911353E-02 0.00000000E+00 0.00000000E+00
36  6 0.00000000E+00 0.00000000E+00-2.56603139E-01 4.85210984E-01 0.00000000E+00
36  7 1.40736858E-01-2.66119385E-01 0.00000000E+00-5.46329185E-02 1.03305409E-01
36  8 0.00000000E+00 0.00000000E+00 0.00000000E+00 0.00000000E+00-2.56603139E-01
36  9 4.85210984E-01 0.00000000E+00 1.40736858E-01-2.66119385E-01 0.00000000E+00
36 10-5.46329185E-02 1.03305409E-01 0.00000000E+00
37  1 0.00000000E+00 0.00000000E+00 0.00000000E+00 5.93863778E-01 3.14064015E-01
37  2 0.00000000E+00-3.99980344E-01-2.11529036E-01 0.00000000E+00 7.78911353E-02
37  3 4.11926161E-02 0.00000000E+00 0.00000000E+00 0.00000000E+00 0.00000000E+00
37  4 5.93863778E-01 3.14064015E-01 0.00000000E+00-3.99980344E-01-2.11529036E-01
37  5 0.00000000E+00 7.78911353E-02 4.11926161E-02 0.00000000E+00 0.00000000E+00
37  6 0.00000000E+00 0.00000000E+00 4.85210984E-01 2.56603139E-01 0.00000000E+00
37  7-2.66119385E-01-1.40736858E-01 0.00000000E+00 1.03305409E-01 5.46329185E-02