!
! BASIC TEST ON [F-H-F]^-1 ANION
! NEO-MP2(EE+EP)/DZSPDN/AUG'-CC-PVTZ
!
! RESULTS OF NEO-MP2 CORRECTION ARE
!               E(0)=      -199.5456898252
!               E(1)=         0.0
!             E(2ee)=         -.5796098725
!             E(2ep)=         -.0096428664
!             E(MP2)=      -200.1349425641
!
 $CONTRL SCFTYP=RHF RUNTYP=ENERGY MAXIT=200
         ICHARG=-1 MULT=1 MPLEVL=2 ISPHER=1 $END
 $SYSTEM TIMLIM=3000 MEMORY=60000000  $END
 $INTGRL SCHWRZ=.F. $END
 $SCF    DIIS=.T. NCONV=1.0D-07 $END
 $NEO    NEOSCF=DIAGZN BASNUC=DZSPDN NUNIQN=1 NUCST=1
         IUNIQN(1)=3  NUMULT=2 NEMPLV=2 $END
 $GUESS  GUESS=MOREAD NORB=115 $END
 $DATA

 C1
 F           9.0    .0000000000    .0000000000  -1.1598000000
 S   8
  1        19500.00000         0.5070000000E-03
  2        2923.000000         0.3923000000E-02
  3        664.5000000         0.2020000000E-01
  4        187.5000000         0.7901000000E-01
  5        60.62000000         0.2304390000    
  6        21.42000000         0.4328720000    
  7        7.950000000         0.3499640000    
  8       0.8815000000        -0.7892000000E-02
 S   8
  1        19500.00000        -0.1170000000E-03
  2        2923.000000        -0.9120000000E-03
  3        664.5000000        -0.4717000000E-02
  4        187.5000000        -0.1908600000E-01
  5        60.62000000        -0.5965500000E-01
  6        21.42000000        -0.1400100000    
  7        7.950000000        -0.1767820000    
  8       0.8815000000         0.6050430000    
 S   1
  1        2.257000000          1.000000000    
 S   1
  1       0.3041000000          1.000000000    
 P   3
  1        43.88000000         0.1666500000E-01
  2        9.926000000         0.1044720000    
  3        2.930000000         0.3172600000    
 P   1
  1       0.9132000000          1.000000000    
 P   1
  1       0.2672000000          1.000000000    
 D   1
  1        3.107000000          1.000000000    
 D   1
  1       0.8550000000          1.000000000    
 F   1
  1        1.917000000          1.000000000    
 S   1
  1       0.915800000E-01      1.00000000    
 P   1
  1       0.736100000E-01      1.00000000    
 D   1
  1       0.292000000          1.00000000    
 F   1
  1       0.724000000          1.00000000    

 F           9.0    .0000000000    .0000000000   1.1598000000
 S   8
  1        19500.00000         0.5070000000E-03
  2        2923.000000         0.3923000000E-02
  3        664.5000000         0.2020000000E-01
  4        187.5000000         0.7901000000E-01
  5        60.62000000         0.2304390000    
  6        21.42000000         0.4328720000    
  7        7.950000000         0.3499640000    
  8       0.8815000000        -0.7892000000E-02
 S   8
  1        19500.00000        -0.1170000000E-03
  2        2923.000000        -0.9120000000E-03
  3        664.5000000        -0.4717000000E-02
  4        187.5000000        -0.1908600000E-01
  5        60.62000000        -0.5965500000E-01
  6        21.42000000        -0.1400100000    
  7        7.950000000        -0.1767820000    
  8       0.8815000000         0.6050430000    
 S   1
  1        2.257000000          1.000000000    
 S   1
  1       0.3041000000          1.000000000    
 P   3
  1        43.88000000         0.1666500000E-01
  2        9.926000000         0.1044720000    
  3        2.930000000         0.3172600000    
 P   1
  1       0.9132000000          1.000000000    
 P   1
  1       0.2672000000          1.000000000    
 D   1
  1        3.107000000          1.000000000    
 D   1
  1       0.8550000000          1.000000000    
 F   1
  1        1.917000000          1.000000000    
 S   1
  1       0.915800000E-01      1.00000000    
 P   1
  1       0.736100000E-01      1.00000000    
 D   1
  1       0.292000000          1.00000000    
 F   1
  1       0.724000000          1.00000000    

 H           1.0    .0000000000    .0000000000    .0000000000
 S   3
  1        33.87000000         0.6068000000E-02
  2        5.095000000         0.4530800000E-01
  3        1.159000000         0.2028220000    
 S   1
  1       0.3258000000          1.000000000    
 S   1
  1       0.1027000000          1.000000000    
 P   1
  1        1.407000000          1.000000000    
 P   1
  1       0.3880000000          1.000000000    
 D   1
  1        1.057000000          1.000000000    
 S   1
  1       0.252600000E-01      1.00000000    
 P   1
  1       0.102000000          1.00000000    
 D   1
  1       0.247000000          1.00000000    

 $END
 $VEC   
 1  1-6.89667093E-01 8.86036027E-04-3.08720825E-02-4.15710203E-03 0.00000000E+00
 1  2 0.00000000E+00-3.79914555E-04 0.00000000E+00 0.00000000E+00 2.78026418E-04
 1  3 0.00000000E+00 0.00000000E+00-1.34005192E-03 5.09800239E-06 5.09800239E-06
 1  4-1.01960048E-05 0.00000000E+00 0.00000000E+00 0.00000000E+00-2.88004875E-05
 1  5-2.88004875E-05 5.76009750E-05 0.00000000E+00 0.00000000E+00 0.00000000E+00
 1  6 0.00000000E+00 0.00000000E+00 3.28408987E-05 0.00000000E+00-2.20303446E-05
 1  7 0.00000000E+00-2.20303446E-05 0.00000000E+00 0.00000000E+00 0.00000000E+00
 1  8-3.83102725E-03 0.00000000E+00 0.00000000E+00-7.35446058E-04 1.67793971E-04
 1  9 1.67793971E-04-3.35587942E-04 0.00000000E+00 0.00000000E+00 0.00000000E+00
 1 10 0.00000000E+00 0.00000000E+00-3.95567915E-05 0.00000000E+00 2.65355024E-05
 1 11 0.00000000E+00 2.65355024E-05 0.00000000E+00 0.00000000E+00 0.00000000E+00
 1 12 6.89664534E-01-8.86030956E-04 3.08719674E-02 4.15709094E-03 0.00000000E+00
 1 13 0.00000000E+00-3.79912952E-04 0.00000000E+00 0.00000000E+00 2.78023746E-04
 1 14 0.00000000E+00 0.00000000E+00-1.34004571E-03-5.09800414E-06-5.09800414E-06
 1 15 1.01960083E-05 0.00000000E+00 0.00000000E+00 0.00000000E+00 2.88001005E-05
 1 16 2.88001005E-05-5.76002009E-05 0.00000000E+00 0.00000000E+00 0.00000000E+00
 1 17 0.00000000E+00 0.00000000E+00 3.28405552E-05 0.00000000E+00-2.20301142E-05
 1 18 0.00000000E+00-2.20301142E-05 0.00000000E+00 0.00000000E+00 0.00000000E+00
 1 19 3.83102758E-03 0.00000000E+00 0.00000000E+00-7.35445858E-04-1.67792292E-04
 1 20-1.67792292E-04 3.35584585E-04 0.00000000E+00 0.00000000E+00 0.00000000E+00
 1 21 0.00000000E+00 0.00000000E+00-3.95562010E-05 0.00000000E+00 2.65351063E-05
 1 22 0.00000000E+00 2.65351063E-05 0.00000000E+00 0.00000000E+00 0.00000000E+00
 1 23 2.05250256E-10 6.28212240E-09-1.11264751E-09 0.00000000E+00 0.00000000E+00
 1 24 3.94898897E-04 0.00000000E+00 0.00000000E+00-1.36240058E-03 4.24957999E-10
 1 25 4.24958328E-10-8.45245962E-10 0.00000000E+00 0.00000000E+00 0.00000000E+00
 1 26-1.04562872E-10 0.00000000E+00 0.00000000E+00-4.24229304E-03 1.07751606E-09
 1 27 1.07751589E-09-2.16048124E-09 0.00000000E+00 0.00000000E+00 0.00000000E+00
 2  1 6.89388472E-01-1.36640475E-03 3.09930385E-02 2.98827850E-03 0.00000000E+00
 2  2 0.00000000E+00 4.31713142E-04 0.00000000E+00 0.00000000E+00-7.20124947E-04
 2  3 0.00000000E+00 0.00000000E+00 1.67093741E-03 4.82377528E-07 4.82377529E-07
 2  4-9.64755057E-07 0.00000000E+00 0.00000000E+00 0.00000000E+00 1.04293478E-04
 2  5 1.04293478E-04-2.08586957E-04 0.00000000E+00 0.00000000E+00 0.00000000E+00
 2  6 0.00000000E+00 0.00000000E+00-9.25180224E-05 0.00000000E+00 6.20629761E-05
 2  7 0.00000000E+00 6.20629761E-05 0.00000000E+00 0.00000000E+00 0.00000000E+00
 2  8-8.76552036E-05 0.00000000E+00 0.00000000E+00 5.40053839E-05-4.52264992E-04
 2  9-4.52264992E-04 9.04529985E-04 0.00000000E+00 0.00000000E+00 0.00000000E+00
 2 10 0.00000000E+00 0.00000000E+00 1.59077460E-04 0.00000000E+00-1.06712404E-04
 2 11 0.00000000E+00-1.06712404E-04 0.00000000E+00 0.00000000E+00 0.00000000E+00
 2 12 6.89391031E-01-1.36640803E-03 3.09931530E-02 2.98829393E-03 0.00000000E+00
 2 13 0.00000000E+00-4.31714553E-04 0.00000000E+00 0.00000000E+00 7.20125978E-04
 2 14 0.00000000E+00 0.00000000E+00-1.67094238E-03 4.82358186E-07 4.82358186E-07
 2 15-9.64716372E-07 0.00000000E+00 0.00000000E+00 0.00000000E+00 1.04293585E-04
 2 16 1.04293585E-04-2.08587170E-04 0.00000000E+00 0.00000000E+00 0.00000000E+00
 2 17 0.00000000E+00 0.00000000E+00 9.25181443E-05 0.00000000E+00-6.20630579E-05
 2 18 0.00000000E+00-6.20630579E-05 0.00000000E+00 0.00000000E+00 0.00000000E+00
 2 19-8.76409840E-05 0.00000000E+00 0.00000000E+00-5.40081141E-05-4.52265615E-04
 2 20-4.52265615E-04 9.04531230E-04 0.00000000E+00 0.00000000E+00 0.00000000E+00
 2 21 0.00000000E+00 0.00000000E+00-1.59077606E-04 0.00000000E+00 1.06712502E-04
 2 22 0.00000000E+00 1.06712502E-04 0.00000000E+00 0.00000000E+00 0.00000000E+00
 2 23-1.11183953E-04-3.38735396E-03 6.02349355E-04 0.00000000E+00 0.00000000E+00
 2 24 7.33038697E-10 0.00000000E+00 0.00000000E+00-2.52853744E-09-2.28075599E-04
 2 25-2.28075599E-04 4.56151198E-04 0.00000000E+00 0.00000000E+00 0.00000000E+00
 2 26 5.76494276E-05 0.00000000E+00 0.00000000E+00-7.87399240E-09-5.80454613E-04
 2 27-5.80454613E-04 1.16090923E-03 0.00000000E+00 0.00000000E+00 0.00000000E+00
 3  1-4.07116043E-03 3.82160414E-01 1.09088136E-01 2.43733108E-01 0.00000000E+00
 3  2 0.00000000E+00 1.71846887E-02 0.00000000E+00 0.00000000E+00 2.48743469E-02
 3  3 0.00000000E+00 0.00000000E+00 1.29910878E-02-4.85779342E-04-4.85779342E-04
 3  4 9.71558684E-04 0.00000000E+00 0.00000000E+00 0.00000000E+00-2.37794183E-03
 3  5-2.37794183E-03 4.75588365E-03 0.00000000E+00 0.00000000E+00 0.00000000E+00
 3  6 0.00000000E+00 0.00000000E+00 6.22542273E-04 0.00000000E+00-4.17614052E-04
 3  7 0.00000000E+00-4.17614052E-04 0.00000000E+00 0.00000000E+00 0.00000000E+00
 3  8 1.46013290E-02 0.00000000E+00 0.00000000E+00-7.25717390E-04-1.50929767E-03
 3  9-1.50929767E-03 3.01859534E-03 0.00000000E+00 0.00000000E+00 0.00000000E+00
 3 10 0.00000000E+00 0.00000000E+00 1.00716062E-03 0.00000000E+00-6.75623886E-04
 3 11 0.00000000E+00-6.75623886E-04 0.00000000E+00 0.00000000E+00 0.00000000E+00
 3 12-4.07116043E-03 3.82160413E-01 1.09088136E-01 2.43733108E-01 0.00000000E+00
 3 13 0.00000000E+00-1.71846887E-02 0.00000000E+00 0.00000000E+00-2.48743468E-02
 3 14 0.00000000E+00 0.00000000E+00-1.29910878E-02-4.85779342E-04-4.85779342E-04
 3 15 9.71558685E-04 0.00000000E+00 0.00000000E+00 0.00000000E+00-2.37794182E-03
 3 16-2.37794182E-03 4.75588365E-03 0.00000000E+00 0.00000000E+00 0.00000000E+00
 3 17 0.00000000E+00 0.00000000E+00-6.22542272E-04 0.00000000E+00 4.17614052E-04
 3 18 0.00000000E+00 4.17614052E-04 0.00000000E+00 0.00000000E+00 0.00000000E+00
 3 19 1.46013289E-02 0.00000000E+00 0.00000000E+00 7.25717388E-04-1.50929767E-03
 3 20-1.50929767E-03 3.01859534E-03 0.00000000E+00 0.00000000E+00 0.00000000E+00
 3 21 0.00000000E+00 0.00000000E+00-1.00716062E-03 0.00000000E+00 6.75623885E-04
 3 22 0.00000000E+00 6.75623885E-04 0.00000000E+00 0.00000000E+00 0.00000000E+00
 3 23 5.77904149E-02 3.51727570E-02 1.20644243E-02 0.00000000E+00 0.00000000E+00
 3 24 0.00000000E+00 0.00000000E+00 0.00000000E+00-1.39166950E-11-1.88740679E-03
 3 25-1.88740679E-03 3.77481358E-03 0.00000000E+00 0.00000000E+00 0.00000000E+00
 3 26-1.63251089E-03 0.00000000E+00 0.00000000E+00 1.39313877E-11-5.67822050E-03
 3 27-5.67822050E-03 1.13564410E-02 0.00000000E+00 0.00000000E+00 0.00000000E+00
 4  1-3.26161579E-03 4.00412906E-01 1.14575003E-01 2.65757513E-01 0.00000000E+00
 4  2 0.00000000E+00 4.92715888E-03 0.00000000E+00 0.00000000E+00 9.85716825E-03
 4  3 0.00000000E+00 0.00000000E+00 1.13431541E-03-2.42450980E-04-2.42450980E-04
 4  4 4.84901961E-04 0.00000000E+00 0.00000000E+00 0.00000000E+00-1.46487393E-03
 4  5-1.46487393E-03 2.92974787E-03 0.00000000E+00 0.00000000E+00 0.00000000E+00
 4  6 0.00000000E+00 0.00000000E+00 4.43440063E-04 0.00000000E+00-2.97468638E-04
 4  7 0.00000000E+00-2.97468638E-04 0.00000000E+00 0.00000000E+00 0.00000000E+00
 4  8 3.89470403E-02 0.00000000E+00 0.00000000E+00 4.84957445E-03 7.29166046E-04
 4  9 7.29166046E-04-1.45833209E-03 0.00000000E+00 0.00000000E+00 0.00000000E+00
 4 10 0.00000000E+00 0.00000000E+00 4.85830137E-04 0.00000000E+00-3.25904763E-04
 4 11 0.00000000E+00-3.25904763E-04 0.00000000E+00 0.00000000E+00 0.00000000E+00
 4 12 3.26161580E-03-4.00412906E-01-1.14575003E-01-2.65757513E-01 0.00000000E+00
 4 13 0.00000000E+00 4.92715890E-03 0.00000000E+00 0.00000000E+00 9.85716827E-03
 4 14 0.00000000E+00 0.00000000E+00 1.13431542E-03 2.42450980E-04 2.42450980E-04
 4 15-4.84901961E-04 0.00000000E+00 0.00000000E+00 0.00000000E+00 1.46487394E-03
 4 16 1.46487394E-03-2.92974787E-03 0.00000000E+00 0.00000000E+00 0.00000000E+00
 4 17 0.00000000E+00 0.00000000E+00 4.43440063E-04 0.00000000E+00-2.97468638E-04
 4 18 0.00000000E+00-2.97468638E-04 0.00000000E+00 0.00000000E+00 0.00000000E+00
 4 19-3.89470403E-02 0.00000000E+00 0.00000000E+00 4.84957444E-03-7.29166045E-04
 4 20-7.29166045E-04 1.45833209E-03 0.00000000E+00 0.00000000E+00 0.00000000E+00
 4 21 0.00000000E+00 0.00000000E+00 4.85830139E-04 0.00000000E+00-3.25904765E-04
 4 22 0.00000000E+00-3.25904765E-04 0.00000000E+00 0.00000000E+00 0.00000000E+00
 4 23 0.00000000E+00-2.14381806E-11-2.30381785E-11 0.00000000E+00 0.00000000E+00
 4 24-1.20978861E-02 0.00000000E+00 0.00000000E+00-1.96792336E-02 0.00000000E+00
 4 25 0.00000000E+00 0.00000000E+00 0.00000000E+00 0.00000000E+00 0.00000000E+00
 4 26 0.00000000E+00 0.00000000E+00 0.00000000E+00 1.98916430E-02 0.00000000E+00
 4 27 0.00000000E+00-1.46699848E-11 0.00000000E+00 0.00000000E+00 0.00000000E+00
 5  1 8.23316057E-04 8.57674058E-02 2.74630060E-02 1.22972227E-01 0.00000000E+00
 5  2 0.00000000E+00-2.23211174E-01 0.00000000E+00 0.00000000E+00-2.76114233E-01
 5  3 0.00000000E+00 0.00000000E+00-1.89436585E-01 1.60893646E-03 1.60893646E-03
 5  4-3.21787292E-03 0.00000000E+00 0.00000000E+00 0.00000000E+00 5.63263332E-03
 5  5 5.63263332E-03-1.12652666E-02 0.00000000E+00 0.00000000E+00 0.00000000E+00
 5  6 0.00000000E+00 0.00000000E+00-1.44836419E-03 0.00000000E+00 9.71592235E-04
 5  7 0.00000000E+00 9.71592235E-04 0.00000000E+00 0.00000000E+00 0.00000000E+00
 5  8 6.39769295E-02 0.00000000E+00 0.00000000E+00-1.23078589E-02 4.53501878E-03
 5  9 4.53501878E-03-9.07003755E-03 0.00000000E+00 0.00000000E+00 0.00000000E+00
 5 10 0.00000000E+00 0.00000000E+00-2.44221538E-03 0.00000000E+00 1.63828788E-03
 5 11 0.00000000E+00 1.63828788E-03 0.00000000E+00 0.00000000E+00 0.00000000E+00
 5 12 8.23316062E-04 8.57674058E-02 2.74630060E-02 1.22972227E-01 0.00000000E+00
 5 13 0.00000000E+00 2.23211174E-01 0.00000000E+00 0.00000000E+00 2.76114233E-01
 5 14 0.00000000E+00 0.00000000E+00 1.89436585E-01 1.60893646E-03 1.60893646E-03
 5 15-3.21787292E-03 0.00000000E+00 0.00000000E+00 0.00000000E+00 5.63263332E-03
 5 16 5.63263332E-03-1.12652666E-02 0.00000000E+00 0.00000000E+00 0.00000000E+00
 5 17 0.00000000E+00 0.00000000E+00 1.44836419E-03 0.00000000E+00-9.71592234E-04
 5 18 0.00000000E+00-9.71592234E-04 0.00000000E+00 0.00000000E+00 0.00000000E+00
 5 19 6.39769291E-02 0.00000000E+00 0.00000000E+00 1.23078590E-02 4.53501878E-03
 5 20 4.53501878E-03-9.07003756E-03 0.00000000E+00 0.00000000E+00 0.00000000E+00
 5 21 0.00000000E+00 0.00000000E+00 2.44221538E-03 0.00000000E+00-1.63828788E-03
 5 22 0.00000000E+00-1.63828788E-03 0.00000000E+00 0.00000000E+00 0.00000000E+00
 5 23-1.30118857E-01-1.37406426E-01-1.47445989E-01 0.00000000E+00 0.00000000E+00
 5 24 0.00000000E+00 0.00000000E+00 0.00000000E+00 6.46526651E-11 1.26482516E-03
 5 25 1.26482516E-03-2.52965033E-03 0.00000000E+00 0.00000000E+00 0.00000000E+00
 5 26 2.92225650E-03 0.00000000E+00 0.00000000E+00 1.65107612E-10 1.86194232E-02
 5 27 1.86194232E-02-3.72388465E-02 0.00000000E+00 0.00000000E+00 0.00000000E+00
 6  1 0.00000000E+00 0.00000000E+00 0.00000000E+00 0.00000000E+00-1.27979666E-01
 6  2 2.22529144E-01 0.00000000E+00-1.57842900E-01 2.74454892E-01 0.00000000E+00
 6  3-1.25181476E-01 2.17663693E-01 0.00000000E+00 0.00000000E+00 0.00000000E+00
 6  4 0.00000000E+00 0.00000000E+00-5.47894493E-04 9.52670813E-04 0.00000000E+00
 6  5 0.00000000E+00 0.00000000E+00 0.00000000E+00-3.01270413E-03 5.23844524E-03
 6  6 2.28685898E-04-3.97635647E-04 0.00000000E+00-1.77828084E-04 0.00000000E+00
 6  7 1.02271453E-04 0.00000000E+00-4.09085782E-04 7.11312286E-04 0.00000000E+00
 6  8 0.00000000E+00-2.34728240E-02 4.08141980E-02 0.00000000E+00 0.00000000E+00
 6  9 0.00000000E+00 0.00000000E+00 0.00000000E+00-2.62017801E-03 4.55592662E-03
 6 10 7.43191985E-04-1.29225119E-03 0.00000000E+00-5.77912322E-04 0.00000000E+00
 6 11 3.32365570E-04 0.00000000E+00-1.32946225E-03 2.31164923E-03 0.00000000E+00
 6 12 0.00000000E+00 0.00000000E+00 0.00000000E+00 0.00000000E+00-1.27979666E-01
 6 13 2.22529143E-01 0.00000000E+00-1.57842900E-01 2.74454891E-01 0.00000000E+00
 6 14-1.25181476E-01 2.17663692E-01 0.00000000E+00 0.00000000E+00 0.00000000E+00
 6 15 0.00000000E+00 0.00000000E+00 5.47894492E-04-9.52670811E-04 0.00000000E+00
 6 16 0.00000000E+00 0.00000000E+00 0.00000000E+00 3.01270413E-03-5.23844523E-03
 6 17 2.28685898E-04-3.97635646E-04 0.00000000E+00-1.77828083E-04 0.00000000E+00
 6 18 1.02271453E-04 0.00000000E+00-4.09085781E-04 7.11312284E-04 0.00000000E+00
 6 19 0.00000000E+00-2.34728239E-02 4.08141979E-02 0.00000000E+00 0.00000000E+00
 6 20 0.00000000E+00 0.00000000E+00 0.00000000E+00 2.62017799E-03-4.55592662E-03
 6 21 7.43191984E-04-1.29225119E-03 0.00000000E+00-5.77912322E-04 0.00000000E+00
 6 22 3.32365569E-04 0.00000000E+00-1.32946225E-03 2.31164923E-03 0.00000000E+00
 6 23 0.00000000E+00 0.00000000E+00 0.00000000E+00-4.60442679E-03 8.00610896E-03
 6 24 0.00000000E+00-5.66727188E-03 9.85416823E-03 0.00000000E+00 0.00000000E+00
 6 25 0.00000000E+00 0.00000000E+00 0.00000000E+00 0.00000000E+00 0.00000000E+00
 6 26 0.00000000E+00 3.74016682E-04-6.50334656E-04 0.00000000E+00 0.00000000E+00
 6 27 0.00000000E+00 0.00000000E+00 0.00000000E+00-1.17305517E-11 0.00000000E+00
 7  1 0.00000000E+00 0.00000000E+00 0.00000000E+00 0.00000000E+00 2.22529144E-01
 7  2 1.27979666E-01 0.00000000E+00 2.74454892E-01 1.57842900E-01 0.00000000E+00
 7  3 2.17663693E-01 1.25181476E-01 0.00000000E+00 0.00000000E+00 0.00000000E+00
 7  4 0.00000000E+00 0.00000000E+00 9.52670813E-04 5.47894493E-04 0.00000000E+00
 7  5 0.00000000E+00 0.00000000E+00 0.00000000E+00 5.23844524E-03 3.01270413E-03
 7  6-3.97635647E-04-2.28685898E-04 0.00000000E+00-1.02271453E-04 0.00000000E+00
 7  7-1.77828084E-04 0.00000000E+00 7.11312286E-04 4.09085782E-04 0.00000000E+00
 7  8 0.00000000E+00 4.08141979E-02 2.34728240E-02 0.00000000E+00 0.00000000E+00
 7  9 0.00000000E+00 0.00000000E+00 0.00000000E+00 4.55592662E-03 2.62017801E-03
 7 10-1.29225119E-03-7.43191985E-04 0.00000000E+00-3.32365570E-04 0.00000000E+00
 7 11-5.77912322E-04 0.00000000E+00 2.31164923E-03 1.32946225E-03 0.00000000E+00
 7 12 0.00000000E+00 0.00000000E+00 0.00000000E+00 0.00000000E+00 2.22529143E-01
 7 13 1.27979666E-01 0.00000000E+00 2.74454891E-01 1.57842900E-01 0.00000000E+00
 7 14 2.17663692E-01 1.25181476E-01 0.00000000E+00 0.00000000E+00 0.00000000E+00
 7 15 0.00000000E+00 0.00000000E+00-9.52670811E-04-5.47894492E-04 0.00000000E+00
 7 16 0.00000000E+00 0.00000000E+00 0.00000000E+00-5.23844523E-03-3.01270413E-03
 7 17-3.97635646E-04-2.28685898E-04 0.00000000E+00-1.02271453E-04 0.00000000E+00
 7 18-1.77828083E-04 0.00000000E+00 7.11312284E-04 4.09085781E-04 0.00000000E+00
 7 19 0.00000000E+00 4.08141979E-02 2.34728239E-02 0.00000000E+00 0.00000000E+00
 7 20 0.00000000E+00 0.00000000E+00 0.00000000E+00-4.55592662E-03-2.62017799E-03
 7 21-1.29225119E-03-7.43191984E-04 0.00000000E+00-3.32365569E-04 0.00000000E+00
 7 22-5.77912322E-04 0.00000000E+00 2.31164923E-03 1.32946225E-03 0.00000000E+00
 7 23 0.00000000E+00 0.00000000E+00 0.00000000E+00 8.00610896E-03 4.60442679E-03
 7 24 0.00000000E+00 9.85416823E-03 5.66727188E-03 0.00000000E+00 0.00000000E+00
 7 25 0.00000000E+00 0.00000000E+00 0.00000000E+00 0.00000000E+00 0.00000000E+00
 7 26 0.00000000E+00-6.50334656E-04-3.74016682E-04 0.00000000E+00 0.00000000E+00
 7 27 0.00000000E+00 0.00000000E+00 0.00000000E+00 0.00000000E+00 1.34822186E-11
 8  1 0.00000000E+00 0.00000000E+00 0.00000000E+00 0.00000000E+00 2.65628713E-01
 8  2-5.10383335E-03 0.00000000E+00 3.25779848E-01-6.25958706E-03 0.00000000E+00
 8  3 2.82354905E-01-5.42521312E-03 0.00000000E+00 0.00000000E+00 0.00000000E+00
 8  4 0.00000000E+00 0.00000000E+00 8.87412537E-04-1.70508887E-05 0.00000000E+00
 8  5 0.00000000E+00 0.00000000E+00 0.00000000E+00 3.53966860E-03-6.80117707E-05
 8  6-1.38842801E-04 2.66774851E-06 0.00000000E+00 1.19305411E-06 0.00000000E+00
 8  7-6.20924265E-05 0.00000000E+00 2.48369592E-04-4.77221432E-06 0.00000000E+00
 8  8 0.00000000E+00 5.80543610E-02-1.11546594E-03 0.00000000E+00 0.00000000E+00
 8  9 0.00000000E+00 0.00000000E+00 0.00000000E+00 1.48698053E-02-2.85710853E-04
 8 10-1.66606365E-03 3.20120173E-05 0.00000000E+00 1.43162088E-05 0.00000000E+00
 8 11-7.45086286E-04 0.00000000E+00 2.98034524E-03-5.72648369E-05 0.00000000E+00
 8 12 0.00000000E+00 0.00000000E+00 0.00000000E+00 0.00000000E+00-2.65628714E-01
 8 13 5.10383332E-03 0.00000000E+00-3.25779849E-01 6.25958701E-03 0.00000000E+00
 8 14-2.82354905E-01 5.42521309E-03 0.00000000E+00 0.00000000E+00 0.00000000E+00
 8 15 0.00000000E+00 0.00000000E+00 8.87412538E-04-1.70508891E-05 0.00000000E+00
 8 16 0.00000000E+00 0.00000000E+00 0.00000000E+00 3.53966861E-03-6.80117667E-05
 8 17 1.38842802E-04-2.66774789E-06 0.00000000E+00-1.19305384E-06 0.00000000E+00
 8 18 6.20924268E-05 0.00000000E+00-2.48369593E-04 4.77221322E-06 0.00000000E+00
 8 19 0.00000000E+00-5.80543611E-02 1.11546594E-03 0.00000000E+00 0.00000000E+00
 8 20 0.00000000E+00 0.00000000E+00 0.00000000E+00 1.48698054E-02-2.85710867E-04
 8 21 1.66606366E-03-3.20120191E-05 0.00000000E+00-1.43162096E-05 0.00000000E+00
 8 22 7.45086288E-04 0.00000000E+00-2.98034524E-03 5.72648401E-05 0.00000000E+00
 8 23 0.00000000E+00 0.00000000E+00 0.00000000E+00 0.00000000E+00 0.00000000E+00
 8 24 0.00000000E+00-1.02171335E-11 0.00000000E+00 0.00000000E+00 0.00000000E+00
 8 25 0.00000000E+00 0.00000000E+00 0.00000000E+00-5.67629110E-03 1.09065181E-04
 8 26 0.00000000E+00 0.00000000E+00-1.52318976E-11 0.00000000E+00 0.00000000E+00
 8 27 0.00000000E+00 0.00000000E+00 0.00000000E+00 2.67884245E-02-5.14717148E-04
 9  1 0.00000000E+00 0.00000000E+00 0.00000000E+00 0.00000000E+00-5.10383334E-03
 9  2-2.65628713E-01 0.00000000E+00-6.25958704E-03-3.25779848E-01 0.00000000E+00
 9  3-5.42521310E-03-2.82354905E-01 0.00000000E+00 0.00000000E+00 0.00000000E+00
 9  4 0.00000000E+00 0.00000000E+00-1.70508887E-05-8.87412537E-04 0.00000000E+00
 9  5 0.00000000E+00 0.00000000E+00 0.00000000E+00-6.80117704E-05-3.53966860E-03
 9  6 2.66774848E-06 1.38842801E-04 0.00000000E+00 6.20924265E-05 0.00000000E+00
 9  7 1.19305410E-06 0.00000000E+00-4.77221427E-06-2.48369592E-04 0.00000000E+00
 9  8 0.00000000E+00-1.11546594E-03-5.80543610E-02 0.00000000E+00 0.00000000E+00
 9  9 0.00000000E+00 0.00000000E+00 0.00000000E+00-2.85710853E-04-1.48698053E-02
 9 10 3.20120172E-05 1.66606365E-03 0.00000000E+00 7.45086286E-04 0.00000000E+00
 9 11 1.43162088E-05 0.00000000E+00-5.72648368E-05-2.98034524E-03 0.00000000E+00
 9 12 0.00000000E+00 0.00000000E+00 0.00000000E+00 0.00000000E+00 5.10383333E-03
 9 13 2.65628714E-01 0.00000000E+00 6.25958703E-03 3.25779849E-01 0.00000000E+00
 9 14 5.42521310E-03 2.82354905E-01 0.00000000E+00 0.00000000E+00 0.00000000E+00
 9 15 0.00000000E+00 0.00000000E+00-1.70508892E-05-8.87412538E-04 0.00000000E+00
 9 16 0.00000000E+00 0.00000000E+00 0.00000000E+00-6.80117670E-05-3.53966861E-03
 9 17-2.66774792E-06-1.38842802E-04 0.00000000E+00-6.20924268E-05 0.00000000E+00
 9 18-1.19305385E-06 0.00000000E+00 4.77221326E-06 2.48369593E-04 0.00000000E+00
 9 19 0.00000000E+00 1.11546594E-03 5.80543611E-02 0.00000000E+00 0.00000000E+00
 9 20 0.00000000E+00 0.00000000E+00 0.00000000E+00-2.85710867E-04-1.48698054E-02
 9 21-3.20120192E-05-1.66606366E-03 0.00000000E+00-7.45086288E-04 0.00000000E+00
 9 22-1.43162097E-05 0.00000000E+00 5.72648402E-05 2.98034524E-03 0.00000000E+00
 9 23 0.00000000E+00 0.00000000E+00 0.00000000E+00 0.00000000E+00 0.00000000E+00
 9 24 0.00000000E+00 0.00000000E+00 0.00000000E+00 0.00000000E+00 0.00000000E+00
 9 25 0.00000000E+00 0.00000000E+00 0.00000000E+00 1.09065181E-04 5.67629110E-03
 9 26 0.00000000E+00-1.55098165E-11 0.00000000E+00 0.00000000E+00 0.00000000E+00
 9 27 0.00000000E+00 0.00000000E+00 0.00000000E+00-5.14717147E-04-2.67884245E-02
10  1 1.12811948E-03 2.74080952E-03-9.43883830E-04-2.88218440E-02 0.00000000E+00
10  2 0.00000000E+00 2.68310127E-01 0.00000000E+00 0.00000000E+00 3.30753217E-01
10  3 0.00000000E+00 0.00000000E+00 2.38594117E-01-9.56716147E-04-9.56716147E-04
10  4 1.91343229E-03 0.00000000E+00 0.00000000E+00 0.00000000E+00-2.99674104E-03
10  5-2.99674104E-03 5.99348209E-03 0.00000000E+00 0.00000000E+00 0.00000000E+00
10  6 0.00000000E+00 0.00000000E+00 1.10018890E-03 0.00000000E+00-7.38029151E-04
10  7 0.00000000E+00-7.38029151E-04 0.00000000E+00 0.00000000E+00 0.00000000E+00
10  8-5.11576145E-03 0.00000000E+00 0.00000000E+00 5.79056456E-02 2.13935021E-03
10  9 2.13935021E-03-4.27870043E-03 0.00000000E+00 0.00000000E+00 0.00000000E+00
10 10 0.00000000E+00 0.00000000E+00 1.50279264E-03 0.00000000E+00-1.00810395E-03
10 11 0.00000000E+00-1.00810395E-03 0.00000000E+00 0.00000000E+00 0.00000000E+00
10 12-1.12811948E-03-2.74080950E-03 9.43883838E-04 2.88218440E-02 0.00000000E+00
10 13 0.00000000E+00 2.68310127E-01 0.00000000E+00 0.00000000E+00 3.30753217E-01
10 14 0.00000000E+00 0.00000000E+00 2.38594117E-01 9.56716147E-04 9.56716147E-04
10 15-1.91343229E-03 0.00000000E+00 0.00000000E+00 0.00000000E+00 2.99674104E-03
10 16 2.99674104E-03-5.99348209E-03 0.00000000E+00 0.00000000E+00 0.00000000E+00
10 17 0.00000000E+00 0.00000000E+00 1.10018890E-03 0.00000000E+00-7.38029152E-04
10 18 0.00000000E+00-7.38029152E-04 0.00000000E+00 0.00000000E+00 0.00000000E+00
10 19 5.11576144E-03 0.00000000E+00 0.00000000E+00 5.79056456E-02-2.13935021E-03
10 20-2.13935021E-03 4.27870043E-03 0.00000000E+00 0.00000000E+00 0.00000000E+00
10 21 0.00000000E+00 0.00000000E+00 1.50279264E-03 0.00000000E+00-1.00810395E-03
10 22 0.00000000E+00-1.00810395E-03 0.00000000E+00 0.00000000E+00 0.00000000E+00
10 23 0.00000000E+00 0.00000000E+00 0.00000000E+00 0.00000000E+00 0.00000000E+00
10 24-2.10175944E-02 0.00000000E+00 0.00000000E+00-8.40477618E-02 0.00000000E+00
10 25 0.00000000E+00 0.00000000E+00 0.00000000E+00 0.00000000E+00 0.00000000E+00
10 26 0.00000000E+00 0.00000000E+00 0.00000000E+00-9.73206400E-03 0.00000000E+00
10 27 0.00000000E+00 0.00000000E+00 0.00000000E+00 0.00000000E+00 0.00000000E+00
11  1-7.50316880E-03 1.39270234E-02 2.78317519E-03 1.84583247E-01 0.00000000E+00
11  2 0.00000000E+00-1.44753276E-03 0.00000000E+00 0.00000000E+00-1.75963950E-02
11  3 0.00000000E+00 0.00000000E+00 3.89256884E-01 8.13373378E-04 8.13373378E-04
11  4-1.62674676E-03 0.00000000E+00 0.00000000E+00 0.00000000E+00-6.79476499E-03
11  5-6.79476499E-03 1.35895300E-02 0.00000000E+00 0.00000000E+00 0.00000000E+00
11  6 0.00000000E+00 0.00000000E+00-2.66901204E-03 0.00000000E+00 1.79042771E-03
11  7 0.00000000E+00 1.79042771E-03 0.00000000E+00 0.00000000E+00 0.00000000E+00
11  8 1.89546412E+00 0.00000000E+00 0.00000000E+00 4.96838112E-01-6.99298290E-02
11  9-6.99298290E-02 1.39859658E-01 0.00000000E+00 0.00000000E+00 0.00000000E+00
11 10 0.00000000E+00 0.00000000E+00 2.54730077E-02 0.00000000E+00-1.70878130E-02
11 11 0.00000000E+00-1.70878130E-02 0.00000000E+00 0.00000000E+00 0.00000000E+00
11 12-7.50316874E-03 1.39270235E-02 2.78317521E-03 1.84583246E-01 0.00000000E+00
11 13 0.00000000E+00 1.44753275E-03 0.00000000E+00 0.00000000E+00 1.75963950E-02
11 14 0.00000000E+00 0.00000000E+00-3.89256883E-01 8.13373374E-04 8.13373374E-04
11 15-1.62674675E-03 0.00000000E+00 0.00000000E+00 0.00000000E+00-6.79476496E-03
11 16-6.79476496E-03 1.35895299E-02 0.00000000E+00 0.00000000E+00 0.00000000E+00
11 17 0.00000000E+00 0.00000000E+00 2.66901204E-03 0.00000000E+00-1.79042771E-03
11 18 0.00000000E+00-1.79042771E-03 0.00000000E+00 0.00000000E+00 0.00000000E+00
11 19 1.89546411E+00 0.00000000E+00 0.00000000E+00-4.96838109E-01-6.99298289E-02
11 20-6.99298289E-02 1.39859658E-01 0.00000000E+00 0.00000000E+00 0.00000000E+00
11 21 0.00000000E+00 0.00000000E+00-2.54730076E-02 0.00000000E+00 1.70878130E-02
11 22 0.00000000E+00 1.70878130E-02 0.00000000E+00 0.00000000E+00 0.00000000E+00
11 23 7.83909955E-03-7.27136401E-01-2.52675495E+00 0.00000000E+00 0.00000000E+00
11 24 0.00000000E+00 0.00000000E+00 0.00000000E+00 4.95608804E-10 1.28965714E-02
11 25 1.28965714E-02-2.57931429E-02 0.00000000E+00 0.00000000E+00 0.00000000E+00
11 26-1.74981083E+00 0.00000000E+00 0.00000000E+00 3.41741392E-09 2.96911180E-02
11 27 2.96911180E-02-5.93822360E-02 0.00000000E+00 0.00000000E+00 0.00000000E+00
12  1 2.80692211E-02 2.33409163E-02-3.40203318E-03-4.98257768E-01 0.00000000E+00
12  2 0.00000000E+00 3.78101193E-02 0.00000000E+00 0.00000000E+00 5.71000587E-02
12  3-1.08251216E-11-1.52012628E-11-3.86020490E-01-8.21340089E-04-8.21340089E-04
12  4 1.64268018E-03 0.00000000E+00 0.00000000E+00 0.00000000E+00 4.97210892E-03
12  5 4.97210892E-03-9.94421784E-03 0.00000000E+00 0.00000000E+00 0.00000000E+00
12  6 0.00000000E+00 0.00000000E+00-2.56781689E-04 0.00000000E+00 1.72254394E-04
12  7 0.00000000E+00 1.72254394E-04 0.00000000E+00 0.00000000E+00 0.00000000E+00
12  8-9.39339267E+00 0.00000000E+00 0.00000000E+00-3.55928649E+00 3.80397785E-02
12  9 3.80397785E-02-7.60795571E-02 0.00000000E+00 0.00000000E+00 0.00000000E+00
12 10 0.00000000E+00 0.00000000E+00-4.46040187E-03 0.00000000E+00 2.99212854E-03
12 11 0.00000000E+00 2.99212854E-03 0.00000000E+00 0.00000000E+00 0.00000000E+00
12 12-2.80692209E-02-2.33409160E-02 3.40203326E-03 4.98257762E-01 0.00000000E+00
12 13 0.00000000E+00 3.78101192E-02 0.00000000E+00 0.00000000E+00 5.71000588E-02
12 14 1.08237829E-11 1.52176004E-11-3.86020486E-01 8.21340081E-04 8.21340081E-04
12 15-1.64268016E-03 0.00000000E+00 0.00000000E+00 0.00000000E+00-4.97210886E-03
12 16-4.97210886E-03 9.94421772E-03 0.00000000E+00 0.00000000E+00 0.00000000E+00
12 17 0.00000000E+00 0.00000000E+00-2.56781679E-04 0.00000000E+00 1.72254387E-04