! 
! ***  TEST NEO-MP2 WITH MORE NUCLEAR BASIS FUNCTIONS
!      THAN ELECTRONIC BASIS FUNCTIONS.
!      POINT GROUP SYMMETRY ACTIVATED.
!      ONE AUXILIARY BASIS FUNCTION CENTER USED.
!      MIXED NUCLEAR-ELECTRONIC INTEGRALS SHOULD BE 
!      RECALCULATED IN THIS JOB TO FORM A C1 LIST.
!      THEN THE RESULTANT NEO-MP2 CALCULATION. ***
!
!RESULTS OF NEO-MP2 CORRECTION ARE
!              E(0)=        -5.7192308547
!              E(1)=         0.0
!            E(2EE)=        -0.0298566574
!            E(2EP)=        -0.0208198133
!            E(MP2)=        -5.7699073254
!
 $CONTRL SCFTYP=RHF RUNTYP=ENERGY 
         ICHARG=1 MULT=1 MPLEVL=2 $END 
 $SYSTEM TIMLIM=3000 MEMORY=500000 $END 
 $INTGRL SCHWRZ=.F. $END 
 $NEO    NEOSCF=DIAGZN BASNUC=DZSPDN NUNIQN=1 
         IUNIQN(1)=3 NAUXNB=0 NTAUXB=1 IAUXNB(1)=4 
         NUMULT=2 SYMNUC=.T. NUCST=1 NEMPLV=2 $END 
 $BASIS  GBASIS=N31 NGAUSS=6 $END 
 $GUESS  GUESS=MOREAD NORB=8 $END 
 $DATA 
  
 DNH 4

HE          2.0       .0000000000       .0000000000      -.9335000000
H           1.0       .0000000000       .0000000000      -.3500000000
 $END      
 $VEC
 1  1 4.00097196E-01 2.34836089E-01 4.00097196E-01 2.34836089E-01 1.13240070E-01
 1  2 2.63354411E-02 1.13240070E-01 2.63354411E-02
 2  1 4.42727146E-01 3.33148353E-01-4.42727146E-01-3.33148353E-01 8.54575257E-02
 2  2-6.71161287E-02-8.54575257E-02 6.71161287E-02
 3  1-2.34963261E-01-9.18732697E-01-2.34963261E-01-9.18732697E-01 1.39064842E-01
 3  2 9.39483929E-01 1.39064842E-01 9.39483929E-01
 4  1-1.48087276E-01-1.60892036E+00 1.48087276E-01 1.60892036E+00-5.40753936E-02
 4  2 5.34593560E+00 5.40753936E-02-5.34593560E+00
 5  1 7.78417450E-02-3.85269195E-01 7.78417450E-02-3.85269195E-01 7.84120295E-01
 5  2-3.81294992E-01 7.84120295E-01-3.81294992E-01
 6  1-8.74353641E-01 1.61544503E+00-8.74353641E-01 1.61544503E+00 2.33932992E-01
 6  2-9.40452020E-01 2.33932992E-01-9.40452020E-01
 7  1 5.81366780E-01-2.84588123E+00-5.81366780E-01 2.84588123E+00 8.54818831E-01
 7  2 4.74747461E+00-8.54818831E-01-4.74747461E+00
 8  1 8.02022538E-01-9.82481416E-01-8.02022538E-01 9.82481416E-01-1.03592317E+00
 8  2 2.01349778E+00 1.03592317E+00-2.01349778E+00
 $END
 $VECPRO
 1  1-4.60503407E+00 6.03886523E+00 0.00000000E+00 0.00000000E+00-8.84157805E-01
 1  2 0.00000000E+00 0.00000000E+00 1.28754900E+00-8.45422080E-01-8.45422080E-01
 1  3-6.83713395E-01 0.00000000E+00 0.00000000E+00 0.00000000E+00-5.79249912E-02
 1  4-5.79249912E-02-5.76791272E-01 0.00000000E+00 0.00000000E+00 0.00000000E+00
 1  5-4.60503407E+00 6.03886523E+00 0.00000000E+00 0.00000000E+00 8.84157805E-01
 1  6 0.00000000E+00 0.00000000E+00-1.28754900E+00-8.45422080E-01-8.45422080E-01
 1  7-6.83713395E-01 0.00000000E+00 0.00000000E+00 0.00000000E+00-5.79249912E-02
 1  8-5.79249912E-02-5.76791272E-01 0.00000000E+00 0.00000000E+00 0.00000000E+00
 2  1-4.66350109E+00 6.11578259E+00 0.00000000E+00 0.00000000E+00-8.82910888E-01
 2  2 0.00000000E+00 0.00000000E+00 1.28659991E+00-8.56263813E-01-8.56263813E-01
 2  3-6.96330298E-01 0.00000000E+00 0.00000000E+00 0.00000000E+00-5.78637697E-02
 2  4-5.78637697E-02-5.74961594E-01 0.00000000E+00 0.00000000E+00 0.00000000E+00
 2  5 4.66350109E+00-6.11578259E+00 0.00000000E+00 0.00000000E+00-8.82910888E-01
 2  6 0.00000000E+00 0.00000000E+00 1.28659991E+00 8.56263813E-01 8.56263813E-01
 2  7 6.96330298E-01 0.00000000E+00 0.00000000E+00 0.00000000E+00 5.78637697E-02
 2  8 5.78637697E-02 5.74961594E-01 0.00000000E+00 0.00000000E+00 0.00000000E+00
 3  1 0.00000000E+00 0.00000000E+00-9.64420866E-01 0.00000000E+00 0.00000000E+00
 3  2 1.41553966E+00 0.00000000E+00 0.00000000E+00 0.00000000E+00 0.00000000E+00
 3  3 0.00000000E+00 0.00000000E+00 2.37726998E-01 0.00000000E+00 0.00000000E+00
 3  4 0.00000000E+00 0.00000000E+00 0.00000000E+00-6.51840669E-01 0.00000000E+00
 3  5 0.00000000E+00 0.00000000E+00-9.64420866E-01 0.00000000E+00 0.00000000E+00
 3  6 1.41553966E+00 0.00000000E+00 0.00000000E+00 0.00000000E+00 0.00000000E+00
 3  7 0.00000000E+00 0.00000000E+00-2.37726998E-01 0.00000000E+00 0.00000000E+00
 3  8 0.00000000E+00 0.00000000E+00 0.00000000E+00 6.51840669E-01 0.00000000E+00
 4  1 0.00000000E+00 0.00000000E+00 0.00000000E+00-9.64420866E-01 0.00000000E+00
 4  2 0.00000000E+00 1.41553966E+00 0.00000000E+00 0.00000000E+00 0.00000000E+00
 4  3 0.00000000E+00 0.00000000E+00 0.00000000E+00 2.37726998E-01 0.00000000E+00
 4  4 0.00000000E+00 0.00000000E+00 0.00000000E+00 0.00000000E+00-6.51840669E-01
 4  5 0.00000000E+00 0.00000000E+00 0.00000000E+00-9.64420866E-01 0.00000000E+00
 4  6 0.00000000E+00 1.41553966E+00 0.00000000E+00 0.00000000E+00 0.00000000E+00
 4  7 0.00000000E+00 0.00000000E+00 0.00000000E+00-2.37726998E-01 0.00000000E+00
 4  8 0.00000000E+00 0.00000000E+00 0.00000000E+00 0.00000000E+00 6.51840669E-01
 5  1 0.00000000E+00 0.00000000E+00 0.00000000E+00-9.64275372E-01 0.00000000E+00
 5  2 0.00000000E+00 1.41544584E+00 0.00000000E+00 0.00000000E+00 0.00000000E+00
 5  3 0.00000000E+00 0.00000000E+00 0.00000000E+00 2.37470697E-01 0.00000000E+00
 5  4 0.00000000E+00 0.00000000E+00 0.00000000E+00 0.00000000E+00-6.51602379E-01
 5  5 0.00000000E+00 0.00000000E+00 0.00000000E+00 9.64275372E-01 0.00000000E+00
 5  6 0.00000000E+00-1.41544584E+00 0.00000000E+00 0.00000000E+00 0.00000000E+00
 5  7 0.00000000E+00 0.00000000E+00 0.00000000E+00 2.37470697E-01 0.00000000E+00
 5  8 0.00000000E+00 0.00000000E+00 0.00000000E+00 0.00000000E+00-6.51602379E-01
 6  1 0.00000000E+00 0.00000000E+00-9.64275372E-01 0.00000000E+00 0.00000000E+00
 6  2 1.41544584E+00 0.00000000E+00 0.00000000E+00 0.00000000E+00 0.00000000E+00
 6  3 0.00000000E+00 0.00000000E+00 2.37470697E-01 0.00000000E+00 0.00000000E+00
 6  4 0.00000000E+00 0.00000000E+00 0.00000000E+00-6.51602379E-01 0.00000000E+00
 6  5 0.00000000E+00 0.00000000E+00 9.64275372E-01 0.00000000E+00 0.00000000E+00
 6  6-1.41544584E+00 0.00000000E+00 0.00000000E+00 0.00000000E+00 0.00000000E+00
 6  7 0.00000000E+00 0.00000000E+00 2.37470697E-01 0.00000000E+00 0.00000000E+00
 6  8 0.00000000E+00 0.00000000E+00 0.00000000E+00-6.51602379E-01 0.00000000E+00
 7  1-7.94173106E+00 1.09411698E+01 0.00000000E+00 0.00000000E+00-1.45060584E+00
 7  2 0.00000000E+00 0.00000000E+00 1.20523229E+00-1.43337734E+00-1.43337734E+00
 7  3-7.70562629E-01 0.00000000E+00 0.00000000E+00 0.00000000E+00-9.47833171E-02
 7  4-9.47833171E-02-7.85864906E-01 0.00000000E+00 0.00000000E+00 0.00000000E+00
 7  5-7.94173106E+00 1.09411698E+01 0.00000000E+00 0.00000000E+00 1.45060584E+00
 7  6 0.00000000E+00 0.00000000E+00-1.20523229E+00-1.43337734E+00-1.43337734E+00
 7  7-7.70562629E-01 0.00000000E+00 0.00000000E+00 0.00000000E+00-9.47833171E-02
 7  8-9.47833171E-02-7.85864906E-01 0.00000000E+00 0.00000000E+00 0.00000000E+00
 8  1-8.07287893E+00 1.11148101E+01 0.00000000E+00 0.00000000E+00-1.45131863E+00
 8  2 0.00000000E+00 0.00000000E+00 1.20647772E+00-1.45749118E+00-1.45749118E+00
 8  3-7.97258275E-01 0.00000000E+00 0.00000000E+00 0.00000000E+00-9.51388156E-02
 8  4-9.51388156E-02-7.83957919E-01 0.00000000E+00 0.00000000E+00 0.00000000E+00
 8  5 8.07287893E+00-1.11148101E+01 0.00000000E+00 0.00000000E+00-1.45131863E+00
 8  6 0.00000000E+00 0.00000000E+00 1.20647772E+00 1.45749118E+00 1.45749118E+00
 8  7 7.97258275E-01 0.00000000E+00 0.00000000E+00 0.00000000E+00 9.51388156E-02
 8  8 9.51388156E-02 7.83957919E-01 0.00000000E+00 0.00000000E+00 0.00000000E+00
 9  1-1.01930741E+01 1.35913992E+01 0.00000000E+00 0.00000000E+00 9.27503288E-02
 9  2 0.00000000E+00 0.00000000E+00 8.23855995E-02-2.28101450E+00-2.28101450E+00
 9  3-2.08078929E+00 0.00000000E+00 0.00000000E+00 0.00000000E+00 7.92583621E-01
 9  4 7.92583621E-01-1.51666677E-01 0.00000000E+00 0.00000000E+00 0.00000000E+00
 9  5-1.01930741E+01 1.35913992E+01 0.00000000E+00 0.00000000E+00-9.27503288E-02
 9  6 0.00000000E+00 0.00000000E+00-8.23855995E-02-2.28101450E+00-2.28101450E+00
 9  7-2.08078929E+00 0.00000000E+00 0.00000000E+00 0.00000000E+00 7.92583621E-01
 9  8 7.92583621E-01-1.51666677E-01 0.00000000E+00 0.00000000E+00 0.00000000E+00
10  1-1.02165261E+01 1.36226358E+01 0.00000000E+00 0.00000000E+00 9.25041728E-02
10  2 0.00000000E+00 0.00000000E+00 8.26556966E-02-2.28525776E+00-2.28525776E+00
10  3-2.08555538E+00 0.00000000E+00 0.00000000E+00 0.00000000E+00 7.92441020E-01
10  4 7.92441020E-01-1.51351507E-01 0.00000000E+00 0.00000000E+00 0.00000000E+00
10  5 1.02165261E+01-1.36226358E+01 0.00000000E+00 0.00000000E+00 9.25041728E-02
10  6 0.00000000E+00 0.00000000E+00 8.26556966E-02 2.28525776E+00 2.28525776E+00
10  7 2.08555538E+00 0.00000000E+00 0.00000000E+00 0.00000000E+00-7.92441020E-01
10  8-7.92441020E-01 1.51351507E-01 0.00000000E+00 0.00000000E+00 0.00000000E+00
11  1 0.00000000E+00 0.00000000E+00 1.79425730E+00 0.00000000E+00 0.00000000E+00
11  2-1.40344127E+00 0.00000000E+00 0.00000000E+00 0.00000000E+00 0.00000000E+00
11  3 0.00000000E+00 0.00000000E+00-1.20527617E+00 0.00000000E+00 0.00000000E+00
11  4 0.00000000E+00 0.00000000E+00 0.00000000E+00 1.12458716E+00 0.00000000E+00
11  5 0.00000000E+00 0.00000000E+00 1.79425730E+00 0.00000000E+00 0.00000000E+00
11  6-1.40344127E+00 0.00000000E+00 0.00000000E+00 0.00000000E+00 0.00000000E+00
11  7 0.00000000E+00 0.00000000E+00 1.20527617E+00 0.00000000E+00 0.00000000E+00
11  8 0.00000000E+00 0.00000000E+00 0.00000000E+00-1.12458716E+00 0.00000000E+00
12  1 0.00000000E+00 0.00000000E+00 0.00000000E+00 1.79425730E+00 0.00000000E+00
12  2 0.00000000E+00-1.40344127E+00 0.00000000E+00 0.00000000E+00 0.00000000E+00
12  3 0.00000000E+00 0.00000000E+00 0.00000000E+00-1.20527617E+00 0.00000000E+00
12  4 0.00000000E+00 0.00000000E+00 0.00000000E+00 0.00000000E+00 1.12458716E+00
12  5 0.00000000E+00 0.00000000E+00 0.00000000E+00 1.79425730E+00 0.00000000E+00
12  6 0.00000000E+00-1.40344127E+00 0.00000000E+00 0.00000000E+00 0.00000000E+00
12  7 0.00000000E+00 0.00000000E+00 0.00000000E+00 1.20527617E+00 0.00000000E+00
12  8 0.00000000E+00 0.00000000E+00 0.00000000E+00 0.00000000E+00-1.12458716E+00
13  1 0.00000000E+00 0.00000000E+00 0.00000000E+00 1.79470519E+00 0.00000000E+00
13  2 0.00000000E+00-1.40393269E+00 0.00000000E+00 0.00000000E+00 0.00000000E+00
13  3 0.00000000E+00 0.00000000E+00 0.00000000E+00-1.20506465E+00 0.00000000E+00
13  4 0.00000000E+00 0.00000000E+00 0.00000000E+00 0.00000000E+00 1.12445569E+00
13  5 0.00000000E+00 0.00000000E+00 0.00000000E+00-1.79470519E+00 0.00000000E+00
13  6 0.00000000E+00 1.40393269E+00 0.00000000E+00 0.00000000E+00 0.00000000E+00
13  7 0.00000000E+00 0.00000000E+00 0.00000000E+00-1.20506465E+00 0.00000000E+00
13  8 0.00000000E+00 0.00000000E+00 0.00000000E+00 0.00000000E+00 1.12445569E+00
14  1 0.00000000E+00 0.00000000E+00 1.79470519E+00 0.00000000E+00 0.00000000E+00
14  2-1.40393269E+00 0.00000000E+00 0.00000000E+00 0.00000000E+00 0.00000000E+00
14  3 0.00000000E+00 0.00000000E+00-1.20506465E+00 0.00000000E+00 0.00000000E+00
14  4 0.00000000E+00 0.00000000E+00 0.00000000E+00 1.12445569E+00 0.00000000E+00
14  5 0.00000000E+00 0.00000000E+00-1.79470519E+00 0.00000000E+00 0.00000000E+00
14  6 1.40393269E+00 0.00000000E+00 0.00000000E+00 0.00000000E+00 0.00000000E+00
14  7 0.00000000E+00 0.00000000E+00-1.20506465E+00 0.00000000E+00 0.00000000E+00
14  8 0.00000000E+00 0.00000000E+00 0.00000000E+00 1.12445569E+00 0.00000000E+00
15  1 0.00000000E+00 0.00000000E+00 0.00000000E+00 0.00000000E+00 0.00000000E+00
15  2 0.00000000E+00 0.00000000E+00 0.00000000E+00-4.79660584E-01 4.79660584E-01
15  3 0.00000000E+00 0.00000000E+00 0.00000000E+00 0.00000000E+00 1.04817668E+00
15  4-1.04817668E+00 0.00000000E+00 0.00000000E+00 0.00000000E+00 0.00000000E+00
15  5 0.00000000E+00 0.00000000E+00 0.00000000E+00 0.00000000E+00 0.00000000E+00
15  6 0.00000000E+00 0.00000000E+00 0.00000000E+00-4.79660584E-01 4.79660584E-01
15  7 0.00000000E+00 0.00000000E+00 0.00000000E+00 0.00000000E+00 1.04817668E+00
15  8-1.04817668E+00 0.00000000E+00 0.00000000E+00 0.00000000E+00 0.00000000E+00
16  1 0.00000000E+00 0.00000000E+00 0.00000000E+00 0.00000000E+00 0.00000000E+00
16  2 0.00000000E+00 0.00000000E+00 0.00000000E+00 0.00000000E+00 0.00000000E+00
16  3 0.00000000E+00-5.53864183E-01 0.00000000E+00 0.00000000E+00 0.00000000E+00
16  4 0.00000000E+00 0.00000000E+00 1.21033005E+00 0.00000000E+00 0.00000000E+00
16  5 0.00000000E+00 0.00000000E+00 0.00000000E+00 0.00000000E+00 0.00000000E+00
16  6 0.00000000E+00 0.00000000E+00 0.00000000E+00 0.00000000E+00 0.00000000E+00
16  7 0.00000000E+00-5.53864183E-01 0.00000000E+00 0.00000000E+00 0.00000000E+00
16  8 0.00000000E+00 0.00000000E+00 1.21033005E+00 0.00000000E+00 0.00000000E+00
17  1 0.00000000E+00 0.00000000E+00 0.00000000E+00 0.00000000E+00 0.00000000E+00
17  2 0.00000000E+00 0.00000000E+00 0.00000000E+00 0.00000000E+00 0.00000000E+00
17  3 0.00000000E+00-5.53821152E-01 0.00000000E+00 0.00000000E+00 0.00000000E+00
17  4 0.00000000E+00 0.00000000E+00 1.21029360E+00 0.00000000E+00 0.00000000E+00
17  5 0.00000000E+00 0.00000000E+00 0.00000000E+00 0.00000000E+00 0.00000000E+00
17  6 0.00000000E+00 0.00000000E+00 0.00000000E+00 0.00000000E+00 0.00000000E+00
17  7 0.00000000E+00 5.53821152E-01 0.00000000E+00 0.00000000E+00 0.00000000E+00
17  8 0.00000000E+00 0.00000000E+00-1.21029360E+00 0.00000000E+00 0.00000000E+00
18  1 0.00000000E+00 0.00000000E+00 0.00000000E+00 0.00000000E+00 0.00000000E+00
18  2 0.00000000E+00 0.00000000E+00 0.00000000E+00-4.79623055E-01 4.79623055E-01
18  3 0.00000000E+00 0.00000000E+00 0.00000000E+00 0.00000000E+00 1.04814489E+00
18  4-1.04814489E+00 0.00000000E+00 0.00000000E+00 0.00000000E+00 0.00000000E+00
18  5 0.00000000E+00 0.00000000E+00 0.00000000E+00 0.00000000E+00 0.00000000E+00
18  6 0.00000000E+00 0.00000000E+00 0.00000000E+00 4.79623055E-01-4.79623055E-01
18  7 0.00000000E+00 0.00000000E+00 0.00000000E+00 0.00000000E+00-1.04814489E+00
18  8 1.04814489E+00 0.00000000E+00 0.00000000E+00 0.00000000E+00 0.00000000E+00
19  1-3.98685683E+01 5.21943468E+01 0.00000000E+00 0.00000000E+00-8.80201798E-01
19  2 0.00000000E+00 0.00000000E+00 6.75281377E-01-8.55038305E+00-8.55038305E+00
19  3-6.25307144E+00 0.00000000E+00 0.00000000E+00 0.00000000E+00 1.27405536E+00
19  4 1.27405536E+00-8.71413052E-01 0.00000000E+00 0.00000000E+00 0.00000000E+00
19  5-3.98685683E+01 5.21943468E+01 0.00000000E+00 0.00000000E+00 8.80201798E-01
19  6 0.00000000E+00 0.00000000E+00-6.75281377E-01-8.55038305E+00-8.55038305E+00
19  7-6.25307144E+00 0.00000000E+00 0.00000000E+00 0.00000000E+00 1.27405536E+00
19  8 1.27405536E+00-8.71413052E-01 0.00000000E+00 0.00000000E+00 0.00000000E+00
20  1-4.01850872E+01 5.26144603E+01 0.00000000E+00 0.00000000E+00-8.81478835E-01
20  2 0.00000000E+00 0.00000000E+00 6.76676758E-01-8.61250276E+00-8.61250276E+00
20  3-6.31487367E+00 0.00000000E+00 0.00000000E+00 0.00000000E+00 1.27703465E+00
20  4 1.27703465E+00-8.68780726E-01 0.00000000E+00 0.00000000E+00 0.00000000E+00
20  5 4.01850872E+01-5.26144603E+01 0.00000000E+00 0.00000000E+00-8.81478835E-01
20  6 0.00000000E+00 0.00000000E+00 6.76676758E-01 8.61250276E+00 8.61250276E+00
20  7 6.31487367E+00 0.00000000E+00 0.00000000E+00 0.00000000E+00-1.27703465E+00
20  8-1.27703465E+00 8.68780726E-01 0.00000000E+00 0.00000000E+00 0.00000000E+00
21  1 0.00000000E+00 0.00000000E+00 0.00000000E+00 0.00000000E+00 0.00000000E+00
21  2 0.00000000E+00 0.00000000E+00 0.00000000E+00 1.87260563E+00-1.87260563E+00
21  3 0.00000000E+00 0.00000000E+00 0.00000000E+00 0.00000000E+00-1.62420754E+00
21  4 1.62420754E+00 0.00000000E+00 0.00000000E+00 0.00000000E+00 0.00000000E+00
21  5 0.00000000E+00 0.00000000E+00 0.00000000E+00 0.00000000E+00 0.00000000E+00
21  6 0.00000000E+00 0.00000000E+00 0.00000000E+00 1.87260563E+00-1.87260563E+00
21  7 0.00000000E+00 0.00000000E+00 0.00000000E+00 0.00000000E+00-1.62420754E+00
21  8 1.62420754E+00 0.00000000E+00 0.00000000E+00 0.00000000E+00 0.00000000E+00
22  1 0.00000000E+00 0.00000000E+00 0.00000000E+00 0.00000000E+00 0.00000000E+00
22  2 0.00000000E+00 0.00000000E+00 0.00000000E+00 0.00000000E+00 0.00000000E+00
22  3 0.00000000E+00 2.16229877E+00 0.00000000E+00 0.00000000E+00 0.00000000E+00
22  4 0.00000000E+00 0.00000000E+00-1.87547341E+00 0.00000000E+00 0.00000000E+00
22  5 0.00000000E+00 0.00000000E+00 0.00000000E+00 0.00000000E+00 0.00000000E+00
22  6 0.00000000E+00 0.00000000E+00 0.00000000E+00 0.00000000E+00 0.00000000E+00
22  7 0.00000000E+00 2.16229877E+00 0.00000000E+00 0.00000000E+00 0.00000000E+00
22  8 0.00000000E+00 0.00000000E+00-1.87547341E+00 0.00000000E+00 0.00000000E+00
23  1 0.00000000E+00 0.00000000E+00 0.00000000E+00 0.00000000E+00 0.00000000E+00
23  2 0.00000000E+00 0.00000000E+00 0.00000000E+00 0.00000000E+00 0.00000000E+00
23  3 0.00000000E+00 2.16231744E+00 0.00000000E+00 0.00000000E+00 0.00000000E+00
23  4 0.00000000E+00 0.00000000E+00-1.87550691E+00 0.00000000E+00 0.00000000E+00
23  5 0.00000000E+00 0.00000000E+00 0.00000000E+00 0.00000000E+00 0.00000000E+00
23  6 0.00000000E+00 0.00000000E+00 0.00000000E+00 0.00000000E+00 0.00000000E+00
23  7 0.00000000E+00-2.16231744E+00 0.00000000E+00 0.00000000E+00 0.00000000E+00
23  8 0.00000000E+00 0.00000000E+00 1.87550691E+00 0.00000000E+00 0.00000000E+00
24  1 0.00000000E+00 0.00000000E+00 0.00000000E+00 0.00000000E+00 0.00000000E+00
24  2 0.00000000E+00 0.00000000E+00 0.00000000E+00 1.87262187E+00-1.87262187E+00
24  3 0.00000000E+00 0.00000000E+00 0.00000000E+00 0.00000000E+00-1.62423671E+00
24  4 1.62423671E+00 0.00000000E+00 0.00000000E+00 0.00000000E+00 0.00000000E+00
24  5 0.00000000E+00 0.00000000E+00 0.00000000E+00 0.00000000E+00 0.00000000E+00
24  6 0.00000000E+00 0.00000000E+00 0.00000000E+00-1.87262187E+00 1.87262187E+00
24  7 0.00000000E+00 0.00000000E+00 0.00000000E+00 0.00000000E+00 1.62423671E+00
24  8-1.62423671E+00 0.00000000E+00 0.00000000E+00 0.00000000E+00 0.00000000E+00
25  1-2.31059728E+01 3.17395196E+01 0.00000000E+00 0.00000000E+00 5.40977165E-01
25  2 0.00000000E+00 0.00000000E+00-4.19167283E-01-5.74007358E+00-5.74007358E+00
25  3-5.19673363E+00 0.00000000E+00 0.00000000E+00 0.00000000E+00 9.30406388E-01
25  4 9.30406388E-01 6.17839799E-01 0.00000000E+00 0.00000000E+00 0.00000000E+00
25  5-2.31059728E+01 3.17395196E+01 0.00000000E+00 0.00000000E+00-5.40977165E-01
25  6 0.00000000E+00 0.00000000E+00 4.19167283E-01-5.74007358E+00-5.74007358E+00
25  7-5.19673363E+00 0.00000000E+00 0.00000000E+00 0.00000000E+00 9.30406388E-01
25  8 9.30406388E-01 6.17839799E-01 0.00000000E+00 0.00000000E+00 0.00000000E+00
26  1-2.26374176E+01 3.11234355E+01 0.00000000E+00 0.00000000E+00 5.45826576E-01
26  2 0.00000000E+00 0.00000000E+00-4.23240002E-01-5.65062664E+00-5.65062664E+00
26  3-5.11092157E+00 0.00000000E+00 0.00000000E+00 0.00000000E+00 9.26380047E-01
26  4 9.26380047E-01 6.17711070E-01 0.00000000E+00 0.00000000E+00 0.00000000E+00
26  5 2.26374176E+01-3.11234355E+01 0.00000000E+00 0.00000000E+00 5.45826576E-01
26  6 0.00000000E+00 0.00000000E+00-4.23240002E-01 5.65062664E+00 5.65062664E+00
26  7 5.11092157E+00 0.00000000E+00 0.00000000E+00 0.00000000E+00-9.26380047E-01
26  8-9.26380047E-01-6.17711070E-01 0.00000000E+00 0.00000000E+00 0.00000000E+00
27  1 0.00000000E+00 0.00000000E+00 1.05837025E-01 0.00000000E+00 0.00000000E+00
27  2 2.84941201E-01 0.00000000E+00 0.00000000E+00 0.00000000E+00 0.00000000E+00
27  3 0.00000000E+00 0.00000000E+00 1.06820067E+00 0.00000000E+00 0.00000000E+00
27  4 0.00000000E+00 0.00000000E+00 0.00000000E+00-5.28222362E-01 0.00000000E+00
27  5 0.00000000E+00 0.00000000E+00 1.05837025E-01 0.00000000E+00 0.00000000E+00
27  6 2.84941201E-01 0.00000000E+00 0.00000000E+00 0.00000000E+00 0.00000000E+00
27  7 0.00000000E+00 0.00000000E+00-1.06820067E+00 0.00000000E+00 0.00000000E+00
27  8 0.00000000E+00 0.00000000E+00 0.00000000E+00 5.28222362E-01 0.00000000E+00
28  1 0.00000000E+00 0.00000000E+00 0.00000000E+00 1.05837025E-01 0.00000000E+00
28  2 0.00000000E+00 2.84941201E-01 0.00000000E+00 0.00000000E+00 0.00000000E+00
28  3 0.00000000E+00 0.00000000E+00 0.00000000E+00 1.06820067E+00 0.00000000E+00
28  4 0.00000000E+00 0.00000000E+00 0.00000000E+00 0.00000000E+00-5.28222362E-01
28  5 0.00000000E+00 0.00000000E+00 0.00000000E+00 1.05837025E-01 0.00000000E+00
28  6 0.00000000E+00 2.84941201E-01 0.00000000E+00 0.00000000E+00 0.00000000E+00
28  7 0.00000000E+00 0.00000000E+00 0.00000000E+00-1.06820067E+00 0.00000000E+00
28  8 0.00000000E+00 0.00000000E+00 0.00000000E+00 0.00000000E+00 5.28222362E-01
29  1 0.00000000E+00 0.00000000E+00 0.00000000E+00 1.05326939E-01 0.00000000E+00
29  2 0.00000000E+00 2.85439588E-01 0.00000000E+00 0.00000000E+00 0.00000000E+00
29  3 0.00000000E+00 0.00000000E+00 0.00000000E+00 1.06803272E+00 0.00000000E+00
29  4 0.00000000E+00 0.00000000E+00 0.00000000E+00 0.00000000E+00-5.28018742E-01
29  5 0.00000000E+00 0.00000000E+00 0.00000000E+00-1.05326939E-01 0.00000000E+00
29  6 0.00000000E+00-2.85439588E-01 0.00000000E+00 0.00000000E+00 0.00000000E+00
29  7 0.00000000E+00 0.00000000E+00 0.00000000E+00 1.06803272E+00 0.00000000E+00
29  8 0.00000000E+00 0.00000000E+00 0.00000000E+00 0.00000000E+00-5.28018742E-01
30  1 0.00000000E+00 0.00000000E+00 1.05326939E-01 0.00000000E+00 0.00000000E+00
30  2 2.85439588E-01 0.00000000E+00 0.00000000E+00 0.00000000E+00 0.00000000E+00
30  3 0.00000000E+00 0.00000000E+00 1.06803272E+00 0.00000000E+00 0.00000000E+00
30  4 0.00000000E+00 0.00000000E+00 0.00000000E+00-5.28018742E-01 0.00000000E+00
30  5 0.00000000E+00 0.00000000E+00-1.05326939E-01 0.00000000E+00 0.00000000E+00
30  6-2.85439588E-01 0.00000000E+00 0.00000000E+00 0.00000000E+00 0.00000000E+00
30  7 0.00000000E+00 0.00000000E+00 1.06803272E+00 0.00000000E+00 0.00000000E+00
30  8 0.00000000E+00 0.00000000E+00 0.00000000E+00-5.28018742E-01 0.00000000E+00
31  1-1.82052076E+02 2.39263026E+02 0.00000000E+00 0.00000000E+00 3.82188534E-01
31  2 0.00000000E+00 0.00000000E+00-2.23742827E-01-3.36421909E+01-3.36421909E+01
31  3-3.35882873E+01 0.00000000E+00 0.00000000E+00 0.00000000E+00 4.98212834E-01
31  4 4.98212834E-01 6.02697433E-01 0.00000000E+00 0.00000000E+00 0.00000000E+00
31  5-1.82052076E+02 2.39263026E+02 0.00000000E+00 0.00000000E+00-3.82188534E-01
31  6 0.00000000E+00 0.00000000E+00 2.23742827E-01-3.36421909E+01-3.36421909E+01
31  7-3.35882873E+01 0.00000000E+00 0.00000000E+00 0.00000000E+00 4.98212834E-01
31  8 4.98212834E-01 6.02697433E-01 0.00000000E+00 0.00000000E+00 0.00000000E+00
32  1-1.81028473E+02 2.37914967E+02 0.00000000E+00 0.00000000E+00 3.94038138E-01
32  2 0.00000000E+00 0.00000000E+00-2.29201346E-01-3.34543202E+01-3.34543202E+01
32  3-3.33749631E+01 0.00000000E+00 0.00000000E+00 0.00000000E+00 4.96533793E-01
32  4 4.96533793E-01 5.83461457E-01 0.00000000E+00 0.00000000E+00 0.00000000E+00
32  5 1.81028473E+02-2.37914967E+02 0.00000000E+00 0.00000000E+00 3.94038138E-01
32  6 0.00000000E+00 0.00000000E+00-2.29201346E-01 3.34543202E+01 3.34543202E+01
32  7 3.33749631E+01 0.00000000E+00 0.00000000E+00 0.00000000E+00-4.96533793E-01
32  8-4.96533793E-01-5.83461457E-01 0.00000000E+00 0.00000000E+00 0.00000000E+00
33  1 0.00000000E+00 0.00000000E+00-1.49241239E+00 0.00000000E+00 0.00000000E+00
33  2 1.52753753E+00 0.00000000E+00 0.00000000E+00 0.00000000E+00 0.00000000E+00
33  3 0.00000000E+00 0.00000000E+00-1.52696049E+00 0.00000000E+00 0.00000000E+00
33  4 0.00000000E+00 0.00000000E+00 0.00000000E+00 1.73585502E+00 0.00000000E+00
33  5 0.00000000E+00 0.00000000E+00-1.49241239E+00 0.00000000E+00 0.00000000E+00
33  6 1.52753753E+00 0.00000000E+00 0.00000000E+00 0.00000000E+00 0.00000000E+00
33  7 0.00000000E+00 0.00000000E+00 1.52696049E+00 0.00000000E+00 0.00000000E+00
33  8 0.00000000E+00 0.00000000E+00 0.00000000E+00-1.73585502E+00 0.00000000E+00
34  1 0.00000000E+00 0.00000000E+00 0.00000000E+00-1.49241239E+00 0.00000000E+00
34  2 0.00000000E+00 1.52753753E+00 0.00000000E+00 0.00000000E+00 0.00000000E+00
34  3 0.00000000E+00 0.00000000E+00 0.00000000E+00-1.52696049E+00 0.00000000E+00
34  4 0.00000000E+00 0.00000000E+00 0.00000000E+00 0.00000000E+00 1.73585502E+00
34  5 0.00000000E+00 0.00000000E+00 0.00000000E+00-1.49241239E+00 0.00000000E+00
34  6 0.00000000E+00 1.52753753E+00 0.00000000E+00 0.00000000E+00 0.00000000E+00
34  7 0.00000000E+00 0.00000000E+00 0.00000000E+00 1.52696049E+00 0.00000000E+00
34  8 0.00000000E+00 0.00000000E+00 0.00000000E+00 0.00000000E+00-1.73585502E+00
35  1 0.00000000E+00 0.00000000E+00 0.00000000E+00-1.49200923E+00 0.00000000E+00
35  2 0.00000000E+00 1.52708549E+00 0.00000000E+00 0.00000000E+00 0.00000000E+00
35  3 0.00000000E+00 0.00000000E+00 0.00000000E+00-1.52758089E+00 0.00000000E+00
35  4 0.00000000E+00 0.00000000E+00 0.00000000E+00 0.00000000E+00 1.73638766E+00
35  5 0.00000000E+00 0.00000000E+00 0.00000000E+00 1.49200923E+00 0.00000000E+00
35  6 0.00000000E+00-1.52708549E+00 0.00000000E+00 0.00000000E+00 0.00000000E+00
35  7 0.00000000E+00 0.00000000E+00 0.00000000E+00-1.52758089E+00 0.00000000E+00
35  8 0.00000000E+00 0.00000000E+00 0.00000000E+00 0.00000000E+00 1.73638766E+00
36  1 0.00000000E+00 0.00000000E+00-1.49200923E+00 0.00000000E+00 0.00000000E+00
36  2 1.52708549E+00 0.00000000E+00 0.00000000E+00 0.00000000E+00 0.00000000E+00
36  3 0.00000000E+00 0.00000000E+00-1.52758089E+00 0.00000000E+00 0.00000000E+00
36  4 0.00000000E+00 0.00000000E+00 0.00000000E+00 1.73638766E+00 0.00000000E+00
36  5 0.00000000E+00 0.00000000E+00 1.49200923E+00 0.00000000E+00 0.00000000E+00
36  6-1.52708549E+00 0.00000000E+00 0.00000000E+00 0.00000000E+00 0.00000000E+00
36  7 0.00000000E+00 0.00000000E+00-1.52758089E+00 0.00000000E+00 0.00000000E+00
36  8 0.00000000E+00 0.00000000E+00 0.00000000E+00 1.73638766E+00 0.00000000E+00
37  1-6.61032030E+01 8.71917983E+01 0.00000000E+00 0.00000000E+00-3.36724520E-01
37  2 0.00000000E+00 0.00000000E+00-5.84047825E-02-1.22111767E+01-1.22111767E+01
37  3-1.38925906E+01 0.00000000E+00 0.00000000E+00 0.00000000E+00 1.28088575E-01
37  4 1.28088575E-01 1.30756106E+00 0.00000000E+00 0.00000000E+00 0.00000000E+00
37  5-6.61032030E+01 8.71917983E+01 0.00000000E+00 0.00000000E+00 3.36724520E-01
37  6 0.00000000E+00 0.00000000E+00 5.84047825E-02-1.22111767E+01-1.22111767E+01
37  7-1.38925906E+01 0.00000000E+00 0.00000000E+00 0.00000000E+00 1.28088575E-01
37  8 1.28088575E-01 1.30756106E+00 0.00000000E+00 0.00000000E+00 0.00000000E+00
38  1-6.90402970E+01 9.10540481E+01 0.00000000E+00 0.00000000E+00-3.23024148E-01
38  2 0.00000000E+00 0.00000000E+00-6.94934175E-02-1.27552592E+01-1.27552592E+01
38  3-1.44362024E+01 0.00000000E+00 0.00000000E+00 0.00000000E+00 1.36540716E-01
38  4 1.36540716E-01 1.31791991E+00 0.00000000E+00 0.00000000E+00 0.00000000E+00
38  5 6.90402970E+01-9.10540481E+01 0.00000000E+00 0.00000000E+00-3.23024148E-01
38  6 0.00000000E+00 0.00000000E+00-6.94934175E-02 1.27552592E+01 1.27552592E+01
38  7 1.44362024E+01 0.00000000E+00 0.00000000E+00 0.00000000E+00-1.36540716E-01
38  8-1.36540716E-01-1.31791991E+00 0.00000000E+00 0.00000000E+00 0.00000000E+00
39  1-6.89938090E+00 9.14540912E+00 0.00000000E+00 0.00000000E+00-1.47182650E+00
39  2 0.00000000E+00 0.00000000E+00 1.60791008E+00-1.17104958E+00-1.17104958E+00
39  3-2.68538599E+00 0.00000000E+00 0.00000000E+00 0.00000000E+00-1.41652009E-01
39  4-1.41652009E-01 1.71825474E+00 0.00000000E+00 0.00000000E+00 0.00000000E+00
39  5-6.89938090E+00 9.14540912E+00 0.00000000E+00 0.00000000E+00 1.47182650E+00
39  6 0.00000000E+00 0.00000000E+00-1.60791008E+00-1.17104958E+00-1.17104958E+00
39  7-2.68538599E+00 0.00000000E+00 0.00000000E+00 0.00000000E+00-1.41652009E-01
39  8-1.41652009E-01 1.71825474E+00 0.00000000E+00 0.00000000E+00 0.00000000E+00
40  1-7.48663517E+00 9.91918495E+00 0.00000000E+00 0.00000000E+00-1.46944046E+00
40  2 0.00000000E+00 0.00000000E+00 1.60502013E+00-1.27999624E+00-1.27999624E+00
40  3-2.80155774E+00 0.00000000E+00 0.00000000E+00 0.00000000E+00-1.40277060E-01
40  4-1.40277060E-01 1.72636761E+00 0.00000000E+00 0.00000000E+00 0.00000000E+00
40  5 7.48663517E+00-9.91918495E+00 0.00000000E+00 0.00000000E+00-1.46944046E+00
40  6 0.00000000E+00 0.00000000E+00 1.60502013E+00 1.27999624E+00 1.27999624E+00
40  7 2.80155774E+00 0.00000000E+00 0.00000000E+00 0.00000000E+00 1.40277060E-01
40  8 1.40277060E-01-1.72636761E+00 0.00000000E+00 0.00000000E+00 0.00000000E+00
 $END
