!
!  TEST MULTIPLE PROTON CASE ....
!  ALSO TESTS NEOMP2 USING MULTIPLE PASSES IN AO->MO TRANS.
!  ENERGIES BELOW WERE OBTAINED USING ONLY ONE PASS.
!
!  HYDROGEN FLUORIDE DIMER: (FH)_2 
!  BOTH H'S ARE QUANTUM
!  NEO-MP2(EE+EP)/DZSPDN/AUG-CC-PVTZ
!
!MEMORY REQUIREMENTS FOR SEGMENTED NEO-MP2 TRANSFORMATION
!  MINIMUM=   2194680 WORDS, USING 1 MOLECULAR ORBITAL PER PASS
!  MAXIMUM=  16620280 WORDS, MAKING ONLY 1 INTEGRAL PASS
!CHOOSING THE SEGMENTED NEO-MP2 TRANSFORMATION...
!  NUMBER OF MOS/PASS =    8
!  NUMBER OF PASSES   =    1
!  MEMORY USED =   16620280 WORDS.
!PASS #   1 TOOK        0.38 SECONDS.
!DONE WITH PARTIAL TRANSFORMATION (PQ|RS) TO (IA|JB)
!                                                                                                                            
!RESULTS OF NEO-MP2 CORRECTION ARE
!              E(0)=      -200.0495759763
!              E(1)=         0.0
!            E(2EE)=        -0.5617879902
!            E(2EP)=        -0.0106755489
!            E(MP2)=      -200.6220395155
!
 $CONTRL SCFTYP=RHF RUNTYP=ENERGY MAXIT=200
         ICHARG=0 MULT=1 MPLEVL=2 ISPHER=1 $END
 $SYSTEM TIMLIM=300000 MEMORY=2200000  $END
 $INTGRL SCHWRZ=.F. $END
 $SCF    SOSCF=.F. DIIS=.T. DIRSCF=.F. FDIFF=.T. NCONV=1.0D-06 $END
 $NEO    NEOSCF=RONHF BASNUC=DZSPDN NUNIQN=2
         NTAUXB=0 NAUXNB=0 
         IUNIQN(1)=3,4  DIRNUC=.F.
         NUMULT=3 SYMNUC=.F. NEMPLV=2 $END
 $GUESS  GUESS=MOREAD NORB=138 $END
 $GESNMO GUESS=MOREAD NORB=40  $END
 $DATA

 C1
 F           9.0   -.0573645880    .0000162028   -.3914897707
 S   8
  1        19500.00000         0.5070000000E-03
  2        2923.000000         0.3923000000E-02
  3        664.5000000         0.2020000000E-01
  4        187.5000000         0.7901000000E-01
  5        60.62000000         0.2304390000    
  6        21.42000000         0.4328720000    
  7        7.950000000         0.3499640000    
  8       0.8815000000        -0.7892000000E-02
 S   8
  1        19500.00000        -0.1170000000E-03
  2        2923.000000        -0.9120000000E-03
  3        664.5000000        -0.4717000000E-02
  4        187.5000000        -0.1908600000E-01
  5        60.62000000        -0.5965500000E-01
  6        21.42000000        -0.1400100000    
  7        7.950000000        -0.1767820000    
  8       0.8815000000         0.6050430000    
 S   1
  1        2.257000000          1.000000000    
 S   1
  1       0.3041000000          1.000000000    
 P   3
  1        43.88000000         0.1666500000E-01
  2        9.926000000         0.1044720000    
  3        2.930000000         0.3172600000    
 P   1
  1       0.9132000000          1.000000000    
 P   1
  1       0.2672000000          1.000000000    
 D   1
  1        3.107000000          1.000000000    
 D   1
  1       0.8550000000          1.000000000    
 F   1
  1        1.917000000          1.000000000    
 S   1
  1       0.915800000E-01      1.00000000    
 P   1
  1       0.736100000E-01      1.00000000    
 D   1
  1       0.292000000          1.00000000    
 F   1
  1       0.724000000          1.00000000    

 F           9.0    .1352129465    .0000145270   2.3185005026
 S   8
  1        19500.00000         0.5070000000E-03
  2        2923.000000         0.3923000000E-02
  3        664.5000000         0.2020000000E-01
  4        187.5000000         0.7901000000E-01
  5        60.62000000         0.2304390000    
  6        21.42000000         0.4328720000    
  7        7.950000000         0.3499640000    
  8       0.8815000000        -0.7892000000E-02
 S   8
  1        19500.00000        -0.1170000000E-03
  2        2923.000000        -0.9120000000E-03
  3        664.5000000        -0.4717000000E-02
  4        187.5000000        -0.1908600000E-01
  5        60.62000000        -0.5965500000E-01
  6        21.42000000        -0.1400100000    
  7        7.950000000        -0.1767820000    
  8       0.8815000000         0.6050430000    
 S   1
  1        2.257000000          1.000000000    
 S   1
  1       0.3041000000          1.000000000    
 P   3
  1        43.88000000         0.1666500000E-01
  2        9.926000000         0.1044720000    
  3        2.930000000         0.3172600000    
 P   1
  1       0.9132000000          1.000000000    
 P   1
  1       0.2672000000          1.000000000    
 D   1
  1        3.107000000          1.000000000    
 D   1
  1       0.8550000000          1.000000000    
 F   1
  1        1.917000000          1.000000000    
 S   1
  1       0.915800000E-01      1.00000000    
 P   1
  1       0.736100000E-01      1.00000000    
 D   1
  1       0.292000000          1.00000000    
 F   1
  1       0.724000000          1.00000000    

 H           1.0   -.0910664459   -.0000232844    .5339959371
 S   3
  1        33.87000000         0.6068000000E-02
  2        5.095000000         0.4530800000E-01
  3        1.159000000         0.2028220000    
 S   1
  1       0.3258000000          1.000000000    
 S   1
  1       0.1027000000          1.000000000    
 P   1
  1        1.407000000          1.000000000    
 P   1
  1       0.3880000000          1.000000000    
 D   1
  1        1.057000000          1.000000000    
 S   1
  1       0.252600000E-01      1.00000000    
 P   1
  1       0.102000000          1.00000000    
 D   1
  1       0.247000000          1.00000000    

 H           1.0   1.0136180874   -.0000074455   2.5909933310
 S   3
  1        33.87000000         0.6068000000E-02
  2        5.095000000         0.4530800000E-01
  3        1.159000000         0.2028220000    
 S   1
  1       0.3258000000          1.000000000    
 S   1
  1       0.1027000000          1.000000000    
 P   1
  1        1.407000000          1.000000000    
 P   1
  1       0.3880000000          1.000000000    
 D   1
  1        1.057000000          1.000000000    
 S   1
  1       0.252600000E-01      1.00000000    
 P   1
  1       0.102000000          1.00000000    
 D   1
  1       0.247000000          1.00000000    

 $END
--- CLOSED SHELL ORBITALS --- GENERATED AT Mon Feb 20 16:24:01 2006
                                                                                
E(RHF)=     -200.0495759783, E(NUC)=   15.7770083878,    8 ITERS
 $VEC
 1  1-7.74006511E-06 5.87081076E-05-3.36246100E-05 1.69373387E-03 2.97559957E-06
 1  2 2.30401196E-09-2.86890459E-05-1.58292732E-05-1.19359999E-08 1.87200308E-04
 1  3-1.82504457E-04-1.60993089E-07 5.06883070E-04 1.94625756E-06-7.23832259E-07
 1  4-1.22242531E-06-1.99037155E-10 1.31006831E-06 1.90934457E-09-5.40760341E-05
 1  5-4.19273828E-05 9.60034169E-05 1.32213743E-09-1.88886711E-05-1.86728424E-08
 1  6 4.37777219E-06 2.69884132E-11 3.61207235E-06 6.98634760E-10-8.35966840E-06
 1  7 1.50601578E-06 3.51356481E-06-7.37941350E-06-7.34843515E-10-2.59106965E-10
 1  8 2.73821503E-03-2.80569910E-05-3.21793339E-08 6.94261618E-04 4.64646316E-06
 1  9-7.14217679E-05 6.67753048E-05 7.60868104E-09-4.46325700E-05-5.17681077E-08
 1 10-1.22418835E-06 8.99929080E-09 5.62135326E-05 2.14484301E-09-2.08292128E-05
 1 11 7.02422023E-07-5.45891553E-05 9.39998994E-07-1.42186586E-08 2.73767854E-09
 1 12 9.75002520E-01-1.77398594E-03 4.38791510E-02 4.82871725E-03 1.16995433E-03
 1 13-3.43681687E-08 2.37429969E-04-1.11925586E-03 3.06104556E-08-1.82347309E-04
 1 14 1.35432472E-03-4.29691769E-08-3.15068995E-04 2.01531680E-05-7.47947751E-06
 1 15-1.26736905E-05-1.13523329E-09 9.66270267E-06-1.16518986E-09-4.58396035E-04
 1 16 2.69747209E-04 1.88648826E-04 2.24242461E-08-2.66417498E-04 8.39601577E-09
 1 17-7.36682906E-05-3.97557229E-09 6.07027192E-05 5.20550896E-09-7.97536623E-05
 1 18 5.67921144E-05-1.68758162E-06 4.20442690E-05 1.28280968E-10 2.41772699E-09
 1 19 4.16388759E-04 1.70013785E-04-5.15552198E-09 1.48859243E-04 4.92804102E-04
 1 20-5.32002034E-04 3.91979320E-05-3.11750617E-08 4.67988488E-04-9.79272128E-09
 1 21 1.54477340E-05 1.56031423E-09-8.08869448E-05 8.97742528E-10 5.15784040E-05
 1 22 5.59316723E-06 5.69428203E-05-2.63184772E-05-2.99112374E-09-1.30721975E-10
 1 23 7.32577167E-05-1.00117518E-03-3.90955503E-03 3.65806671E-09-7.43176276E-09
 1 24 1.09455465E-04 1.66773541E-05 5.01627205E-08 3.01576296E-04 4.38419661E-05
 1 25 4.74627116E-05-9.13046777E-05-5.00579735E-10-1.02011663E-05-3.58615512E-09
 1 26 9.50031490E-05-4.00883566E-05-1.20478786E-08 6.62257231E-04 3.82682918E-04
 1 27 4.87071889E-04-8.69754807E-04 2.53552167E-09-1.51842495E-04-7.12215077E-08
 1 28 5.16031339E-04-1.43798288E-03-4.46273907E-04-5.01500015E-04 1.19140735E-08
 1 29-1.55570729E-04-9.85994686E-05 3.64074470E-09-5.74993225E-05 1.23084982E-04
 1 30-7.57756900E-05-4.73092917E-05-4.99131364E-09 7.15244983E-05-1.50939473E-09
 1 31-2.86169791E-05 5.30505036E-06-2.50175790E-10-1.05454964E-04 3.55619020E-04
 1 32-2.03146766E-04-1.52472254E-04-1.71899140E-08 2.30288355E-04-4.32523880E-09
 2  1 9.74917473E-01-1.92336882E-03 4.39042316E-02 3.30506513E-03-4.26598252E-05
 2  2-5.41323911E-08 1.22895859E-03 5.57689459E-05 6.36113710E-08-1.38869574E-03
 2  3 3.42748934E-05-3.62224813E-08 2.16675721E-03-7.29008804E-06-7.62464603E-06
 2  4 1.49147341E-05 2.83538894E-10-2.31197586E-06-1.76847528E-09 2.50441774E-04
 2  5 2.55309801E-04-5.05751575E-04-2.54571234E-09 4.26570389E-05 4.24821014E-08
 2  6-3.50835712E-06-6.08301255E-09-9.54642570E-05-2.45785045E-09 6.20685699E-05
 2  7-1.85463747E-06 6.60101710E-05 6.56159248E-06 1.06190682E-08-8.29798222E-10
 2  8-6.76027568E-04 3.40375349E-06 1.29645947E-09-1.71145759E-04-5.13573443E-04
 2  9-5.34947401E-04 1.04852084E-03 2.84156229E-09-2.20743657E-05-5.82272658E-08
 2 10-3.99639807E-06 1.16554639E-09 3.64219752E-05-9.76164632E-11-1.95580877E-05
 2 11-1.12996566E-06-2.93071198E-05 6.49169631E-06-1.46612811E-09 6.48704620E-10
 2 12 1.54946736E-04 1.93500384E-04-2.11939426E-05-3.74303859E-04 2.87162369E-06
 2 13 2.77999159E-09-1.68276393E-07 1.82284506E-07-1.33359488E-08-8.14990861E-06
 2 14 6.98937827E-04 4.67218702E-08 9.39317014E-04-7.53243804E-06-4.34445768E-06
 2 15 1.18768957E-05-5.12426740E-10-3.81054967E-06-1.38953953E-09 5.17091448E-05
 2 16 8.83713855E-06-6.05462834E-05 1.90591864E-09 2.79414925E-05 7.96030569E-09
 2 17 3.09256419E-06 2.96243741E-09 8.29673358E-06 2.09638887E-09-5.95772677E-06
 2 18 9.48901723E-06-5.17350939E-06-1.36381275E-05-6.07091573E-09-1.89880975E-09
 2 19-8.47298968E-04 1.19742209E-04 1.93101856E-08 4.47878672E-04 2.14926869E-04
 2 20 1.50418166E-05-2.29968685E-04-2.34606425E-08-1.57942665E-04-6.13586850E-08
 2 21 2.03304645E-06-8.30861090E-09-1.13733397E-05-6.50538502E-09 1.14782545E-05
 2 22-3.57141959E-05 3.78068192E-06 3.29865779E-05 1.76525563E-08 5.28812159E-09
 2 23 3.72081979E-04-2.02270495E-03 2.86332137E-03 2.58897286E-05 2.57982246E-08
 2 24-5.37902157E-04-5.98787123E-05-1.50346903E-08-4.08609389E-04-8.31719292E-05
 2 25-8.22915035E-05 1.65463433E-04 6.90280007E-11-7.12075880E-06-1.11879276E-08
 2 26 5.09814233E-05 2.65228034E-05 1.08648161E-08 4.83931047E-04-8.98824926E-04
 2 27-8.56577422E-04 1.75540235E-03-5.73944734E-09 4.64782226E-06-6.32976734E-08
 2 28 1.13567668E-05-7.45539930E-04-1.63905439E-04 1.39962390E-05-1.99850786E-09
 2 29-1.63314787E-05 2.07878312E-04 4.03418020E-09 1.80059267E-04-1.04897579E-05
 2 30 1.69511964E-05-6.46143843E-06 1.65787927E-09-1.91001007E-05-4.51910992E-10
 2 31-6.65244025E-05 5.85594818E-05-4.16771423E-09-7.30123542E-05 1.26991378E-05
 2 32-2.80327344E-06-9.89586434E-06-4.31958437E-09 2.95859594E-05 5.29491554E-09
 3  1-6.54336116E-04 3.21336064E-02 9.19160015E-03 2.56493864E-02 7.28579654E-06
 3  2-1.05796602E-07 3.51065192E-03 7.36101112E-05-1.22398478E-07 4.66945432E-03
 3  3-1.01812374E-03-5.57200906E-07 5.43482431E-03-8.20921428E-05-9.00505346E-05
 3  4 1.72142677E-04 1.04509375E-09-1.19827768E-05-1.20271851E-08-5.24271986E-04
 3  5-4.82589814E-04 1.00686180E-03-6.34452388E-09 6.68222186E-05-3.29064320E-08
 3  6-3.28525870E-06 9.94354184E-10 5.79543521E-05 1.26184155E-09-4.66919893E-05
 3  7-4.95519055E-07-3.10619333E-05 4.90315613E-06-2.59590768E-09-3.08604518E-09
 3  8 1.66714937E-02-2.27746768E-04-1.40813798E-07 4.75925073E-03-5.45122387E-04
 3  9-7.58191719E-04 1.30331411E-03 5.06909852E-08-2.91941736E-04-1.72191416E-07
 3 10-3.94028578E-05 1.49650963E-08 5.76315060E-04 4.31781198E-09-3.60716912E-04
 3 11-2.07554060E-05-4.12490878E-04 7.36198871E-05-2.43955956E-08 3.42830065E-09
 3 12-4.71449799E-03 5.46793544E-01 1.55857553E-01 3.40833033E-01 3.11420977E-02
 3 13-8.63224811E-07 7.11401578E-03 4.62291315E-02-1.30271895E-06 1.07267715E-02
 3 14 2.38062429E-02-8.91366785E-07-1.90350768E-03 1.93147945E-03-1.12388458E-03
 3 15-8.07594874E-04-8.87107483E-08 1.06673167E-03-2.67369008E-08 8.79253227E-03
 3 16-5.83810502E-03-2.95442725E-03-4.12125015E-07 5.42548667E-03-7.04186860E-08
 3 17 1.09353579E-03 4.78685162E-08-4.22765919E-04-8.54022077E-08 9.57538232E-04
 3 18-9.58456826E-04-3.90338232E-04-5.08675397E-04 2.11798539E-08-3.81550813E-08
 3 19 3.74695497E-02 5.60930254E-03-1.54258825E-07 1.72735593E-03 2.57675011E-03
 3 20-4.20061015E-03 1.62386004E-03-2.08722573E-07 3.00037703E-03 5.20216924E-08
 3 21 2.53251794E-03 1.57445307E-07-2.28831683E-03-1.71915440E-07 3.01775836E-03
 3 22-2.03299002E-03 5.23408211E-05-1.36473934E-03-3.93196058E-08-9.12416334E-08
 3 23 7.54845220E-03 3.22641386E-03-2.35264256E-02 2.00096788E-05 5.02488805E-08
 3 24-1.99447291E-05 3.28701181E-04 5.10584270E-08 9.74604207E-04-4.00353732E-04
 3 25-3.73682658E-04 7.74036390E-04-2.29666846E-09 1.91089658E-04 2.22850537E-08
 3 26 9.82889533E-04-2.57309743E-04-2.11105178E-07 1.87786817E-03 1.40533761E-03
 3 27 1.48326055E-03-2.88859816E-03-1.55317653E-08-9.99767838E-04-2.72685717E-07
 3 28 6.99250859E-02 4.78655757E-02-2.53905345E-02-1.05168966E-02 3.05548999E-07
 3 29-3.20085968E-03-1.11442952E-02 2.93385792E-07-3.65358202E-03 1.86013541E-03
 3 30-1.15457510E-03-7.05560312E-04-9.36958441E-08 1.13598255E-03-2.66181741E-08
 3 31-1.33564502E-03 5.41814175E-03-1.29483453E-07 1.39643033E-03 3.35474638E-03
 3 32-1.69840617E-03-1.65634020E-03-1.49086925E-07 2.01535971E-03-5.75758432E-08
 4  1-5.16633255E-03 5.45891003E-01 1.55935669E-01 3.27607212E-01-1.09246715E-03
 4  2-1.35433818E-06 3.29533138E-02-1.53320826E-03-1.93328668E-06 4.71931454E-02
 4  3 8.87109803E-04-3.68692010E-07 2.73404516E-02-1.10138483E-03-1.11351046E-03
 4  4 2.21489529E-03 6.60024139E-09-1.56655712E-04-1.59869382E-07-5.11696523E-03
 4  5-5.12636567E-03 1.02433309E-02 2.26830768E-08-5.58103721E-04-7.16222896E-07
 4  6 8.53221603E-05 8.84083255E-08 1.44320431E-03 4.01213935E-08-9.78222555E-04
 4  7 3.82309678E-05-9.58039207E-04-1.52702658E-04-1.58733609E-07 1.02299692E-08
 4  8 2.20621714E-02 3.67731754E-05-5.39486833E-08 1.28799403E-03-2.87802564E-03
 4  9-3.21001435E-03 6.08803999E-03-3.07908716E-08 2.04632654E-04-1.91324549E-07
 4 10 1.18274409E-04 1.93879144E-07 3.02610083E-03 8.35068758E-08-1.97134784E-03
 4 11 5.01611078E-05-2.08859246E-03-2.08842879E-04-3.43623043E-07 6.46459495E-09
 4 12 5.63404196E-04-3.78314676E-02-1.10937099E-02-2.01971684E-02-2.77701146E-03
 4 13 5.40907314E-08-3.18555203E-03-3.82964110E-03-9.72152119E-09-4.86147004E-03
 4 14 9.07063496E-03 2.15100057E-07 9.29294767E-03-2.07874095E-04 7.41185680E-05
 4 15 1.33755527E-04 5.72724963E-09-1.33775831E-04-2.15993766E-09-5.98229371E-04
 4 16 4.99312121E-05 5.48298159E-04 3.53839353E-08-6.67062403E-05 6.12298416E-08
 4 17-9.19729064E-05 6.62421550E-09-6.53390980E-05 1.73469079E-08-4.76889291E-05
 4 18 1.47520980E-04 1.35350528E-04-2.41263779E-05-2.62342256E-08-1.03611651E-09
 4 19-9.05852830E-03 5.50518127E-04 2.06379409E-07 3.85463759E-03 3.99622961E-03
 4 20 6.98814923E-05-4.06611111E-03-2.19009068E-07-2.40991974E-04-4.37937760E-07
 4 21 8.48712582E-06-3.86046057E-08 2.67820860E-04-3.23831648E-08-9.91448388E-05
 4 22-2.16402326E-04-2.60174551E-04 2.05015652E-04 8.41766783E-08 1.74005089E-08
 4 23 6.87790788E-02 4.65738020E-02 1.10547309E-02 5.36018016E-05 7.41051783E-07
 4 24-1.19403154E-02-1.02359833E-05 2.59737026E-07-1.39514365E-02-1.15943056E-03
 4 25-1.21694687E-03 2.37637743E-03 1.40982424E-09 1.08879277E-05-2.08712866E-07
 4 26-1.07248899E-03-8.94843902E-05-1.90287436E-07 7.34312897E-03-7.48746050E-03
 4 27-7.01768514E-03 1.45051456E-02-2.09427075E-08 5.78038180E-04-1.98527108E-07
 4 28-5.38920943E-03-1.92566454E-02 4.79781836E-05 9.15769353E-04-3.43840686E-08
 4 29 1.27323966E-04 5.21382318E-03-8.15173704E-08 2.01608687E-03-3.44886842E-04
 4 30 2.43064714E-04 1.01822128E-04 2.34695773E-08-1.15813336E-04 1.57636984E-09
 4 31-1.28150366E-04 2.85917994E-04-4.14629546E-08-8.31616353E-04-1.85574823E-04
 4 32-2.97162918E-04 4.82737741E-04-2.85041913E-08 1.41568627E-04 4.16153806E-08
 5  1 1.51361573E-03 3.88141512E-02 1.16700185E-02 6.95694384E-02 4.62002917E-03
 5  2 1.72349155E-06-6.15996895E-02 5.67554100E-03 1.92783087E-06-7.21558517E-02
 5  3-2.15197563E-03 1.69804167E-07-4.11978960E-02 6.89308633E-04 7.02281927E-04
 5  4-1.39159056E-03-5.07932511E-09 1.76002366E-04 9.77083181E-08 1.87451897E-03
 5  5 1.74904363E-03-3.62356259E-03-2.97102379E-09 3.48585851E-05 5.42626686E-08
 5  6-8.13954485E-05-5.47579282E-09-3.51562215E-04-5.29209894E-09 2.65877183E-04
 5  7-2.94885036E-05 2.05793023E-04 1.38691957E-04 1.26386459E-08-1.36128121E-08
 5  8 6.74177108E-02-1.99777742E-03-8.45178988E-07 9.97654521E-03 2.06810690E-03
 5  9 2.82550512E-03-4.89361202E-03 1.83042907E-07-2.26727038E-03-3.53753467E-08
 5 10 2.61929729E-04-3.30677516E-08-1.76556741E-03-5.31696498E-09 1.08367965E-03
 5 11 9.32386947E-05 1.28507760E-03-4.44654302E-04 4.96820093E-08 6.10675841E-08
 5 12-2.58710752E-03-1.19740876E-01-3.87312256E-02-2.39545221E-01 2.93474508E-01
 5 13-6.34088034E-06 1.25610294E-01 3.57099979E-01-7.64363187E-06 1.54057674E-01
 5 14 1.79330991E-01-3.77559654E-06 8.44774750E-02 5.95367960E-03-3.31800769E-03
 5 15-2.63567192E-03-2.68695306E-07 3.37546897E-03-9.10170804E-08 1.90029109E-02
 5 16-9.82665190E-03-9.17625901E-03-8.71208442E-07 9.71120230E-03-3.38142916E-07
 5 17 2.15693142E-03 9.37531081E-08-1.22277595E-03-1.61484743E-07 2.31629560E-03
 5 18-1.91462178E-03-6.75769507E-04-9.79205385E-04 3.57017488E-08-8.58179160E-08
 5 19-4.97359071E-02 1.67458792E-02-2.06030333E-08 1.27762189E-02 1.21007468E-03
 5 20 9.31683659E-04-2.14175833E-03-1.84539285E-07-3.71373806E-03 1.56014222E-07
 5 21 4.44543626E-03 2.68102631E-07-1.74813143E-03-4.11895494E-07 4.32438111E-03
 5 22-4.79125820E-03-1.97901669E-03-1.17292040E-03 5.21980694E-08-1.19561894E-07
 5 23-2.99068675E-02-5.72641149E-02-6.68595534E-02 1.49592809E-04-2.17565976E-07
 5 24 9.29654695E-04 4.31247678E-03-2.67898532E-07 1.07137515E-02 1.56281895E-03
 5 25 1.58052523E-03-3.14334419E-03 2.12389544E-08-1.96186539E-04-5.60203346E-08
 5 26 2.89735270E-03 2.79281004E-03-3.11410810E-07 3.46917251E-02 6.99809191E-03
 5 27 4.77617946E-03-1.17742714E-02 2.83969603E-08-2.48272436E-03 4.43330115E-07
 5 28 1.28301242E-01 2.72744050E-01 4.42391108E-02-8.39393573E-03 3.28357824E-07
 5 29-1.24332181E-03-6.44925042E-02 1.77247897E-06-1.61144190E-02 4.64913801E-03
 5 30-2.38538959E-03-2.26374842E-03-2.38268698E-07 1.92429490E-03-6.59602066E-08
 5 31-2.00342317E-03-8.04653449E-03 1.25364488E-07-1.18712243E-03 1.43721282E-02
 5 32-7.85494039E-03-6.51718780E-03-6.47247809E-07 7.29412302E-03-2.14235035E-07
 6  1-3.73469756E-03-1.16994265E-01-3.68149586E-02-2.34242614E-01-3.49129754E-03
 6  2-1.01327756E-05 2.65830104E-01-3.85294432E-03-1.21814226E-05 3.19974500E-01
 6  3 2.99482663E-04-3.61623254E-06 1.73774851E-01-2.83092257E-03-2.84895728E-03
 6  4 5.67987985E-03 1.49310948E-08-3.04280320E-04-4.17839072E-07-8.54277435E-03
 6  5-8.55333562E-03 1.70961100E-02 1.19494706E-09-2.95258888E-04-1.02936179E-06
 6  6 7.31401311E-05 1.47039996E-07 2.28878769E-03 6.49542070E-08-1.52431559E-03
 6  7 3.54765603E-05-1.54641532E-03-1.33604343E-04-2.62229063E-07 7.08002374E-09
 6  8-1.32358016E-01 4.64877676E-04 1.15846239E-06-6.43416818E-03-4.13065968E-03
 6  9-3.93087557E-03 8.06153525E-03-9.53315862E-09 5.19552477E-04 6.00989048E-07
 6 10 7.11564624E-05 2.56322329E-07 6.07102005E-03 1.17847367E-07-4.09844339E-03
 6 11 2.11505674E-05-4.04668472E-03-1.16616980E-04-4.61739857E-07-2.97953159E-10
 6 12-8.94444408E-04-5.10485516E-02-1.66450169E-02-8.06407718E-02 1.30321065E-01
 6 13-7.28533181E-06-1.54922027E-01 1.59364797E-01-9.05083565E-06-1.92368097E-01
 6 14 1.08552678E-01-5.74001250E-06-1.30553796E-01 2.03291493E-03-1.06946586E-03
 6 15-9.63449072E-04-1.34990178E-07-7.92097041E-04 2.56627972E-08 6.29250622E-03
 6 16-3.79831940E-03-2.49418682E-03-3.91724195E-07-1.80787461E-03 1.64648598E-07
 6 17 1.25366869E-03 4.97539341E-08 3.96980667E-05-8.21091663E-08-2.39241572E-04
 6 18-4.72582657E-04 1.85981027E-04-1.20939039E-03 1.53572591E-08-6.88317802E-09
 6 19 9.62850535E-03 6.88107703E-03-6.43368213E-07-1.73066741E-02 4.66047407E-03
 6 20-1.86280913E-03-2.79766495E-03-5.77804289E-07-6.79236937E-03-2.55901304E-07
 6 21 1.91541513E-03 1.18068853E-07-1.54353795E-03-1.65154927E-07 1.48414842E-03
 6 22-1.62657576E-03 5.86725044E-04-9.43223298E-04 6.74893837E-09 1.03582492E-08
 6 23 1.08156643E-01 2.15196561E-01 1.54315899E-01 3.66295701E-05 7.55739679E-07
 6 24-7.05159510E-03 2.62518603E-03 1.01733911E-06-5.81327956E-02-2.60349694E-03
 6 25-2.70908334E-03 5.31258029E-03 8.76934102E-09 4.62162616E-04-2.11004778E-07
 6 26-1.02121609E-03 8.53923900E-04 1.29441941E-07-5.30645603E-02-1.64300953E-02
 6 27-1.70619152E-02 3.34920104E-02-1.44139304E-07-1.26527306E-03-5.31626721E-07
 6 28 2.98851836E-02 5.26921197E-02 9.73941480E-03 5.31342042E-04-1.40436654E-07
 6 29-6.32991963E-03-8.55466778E-03 1.30082155E-07-1.14764758E-02-5.98947046E-04
 6 30-3.43218629E-04 9.42165674E-04 7.17746022E-08 2.78518677E-03-6.23193195E-08
 6 31 1.50153981E-03-3.17958687E-04 2.64106527E-08-2.03431994E-03 3.37105952E-03
 6 32-2.80938665E-03-5.61672871E-04-2.54364554E-07 2.11733454E-03 5.86838504E-08
 7  1-5.25425196E-08-3.04546263E-07-8.91205274E-08 1.15093503E-07 7.13241442E-07
 7  2 1.81826734E-02 1.06453332E-06 8.69983444E-07 2.27849428E-02 1.39689421E-06
 7  3 5.13374834E-07 6.09159031E-03 1.78634273E-06-7.27785769E-09-1.62895724E-08
 7  4 2.35674301E-08 9.44311685E-06 1.02644303E-08 2.79706338E-04-2.59203540E-08
 7  5-1.13870620E-07 1.39790974E-07-7.26976334E-05 1.96270161E-08 6.81179248E-04
 7  6-4.33760278E-09-1.51610791E-04 4.35655713E-08-6.56247232E-05-3.93251459E-09
 7  7 2.50592314E-09-5.45168328E-08 3.31358167E-09 2.69031944E-04-4.76323838E-05
 7  8-2.02174738E-06 1.47916636E-07-1.28422249E-03-1.75667691E-07-4.22741432E-07
 7  9 1.55043420E-07 2.67698012E-07 6.58756003E-04 1.06521777E-08-3.00887346E-03
 7 10-1.86325421E-11 9.26076866E-05 2.85940709E-09 3.94174411E-05-5.68363439E-08
 7 11-1.28003944E-08 5.30000467E-08 1.28253926E-08-1.63663691E-04 1.51492240E-04
 7 12-1.12834916E-08 2.63425701E-07 9.97686562E-08 1.16277054E-06 1.16078742E-05
 7 13 3.79985734E-01-7.71377046E-06 1.44002192E-05 4.70171634E-01-9.53865587E-06
 7 14 1.08811882E-05 3.37970365E-01-6.69723584E-06 1.96361408E-07-1.77108249E-07
 7 15-1.92531592E-08 3.52028254E-03-5.16107779E-08 6.58546780E-04 5.95816436E-07
 7 16-5.43657943E-07-5.21584932E-08 1.09165810E-02-1.50137285E-07 2.34590155E-03
 7 17 1.49121839E-07-1.19405110E-03 2.94480190E-08 2.21655854E-03 9.34548484E-09
 7 18-1.49092399E-07-4.88541482E-08-5.09755430E-08-6.14570890E-04 9.87493564E-04
 7 19 9.03409537E-07 6.20195398E-07 2.42175585E-02-7.43545623E-07 7.98855417E-07
 7 20-9.00328714E-07 1.01473297E-07 7.96284655E-03-1.67078022E-07-5.49633159E-03
 7 21 1.35948696E-07-2.70301625E-03-1.14383389E-07 1.69606558E-03 1.85930376E-08
 7 22-1.83730997E-07 1.34868382E-07 1.33668085E-09 1.93041127E-03 1.28817194E-03
 7 23-7.95584594E-08-1.80971082E-06 1.38727006E-06 3.10432390E-08 7.76486435E-04
 7 24 5.45335888E-08 1.34107710E-07 8.40139411E-03 6.14193134E-07 3.73679866E-08
 7 25 8.52615082E-08-1.22629495E-07 6.05546806E-05 1.68309526E-08 2.66735653E-04
 7 26-5.94941436E-08-1.04646626E-07 6.04733043E-03-2.10514111E-06-3.28548192E-08
 7 27 4.20813202E-08-9.22650102E-09-3.56534986E-04-1.64130087E-07-7.92846821E-03
 7 28-5.48262332E-08-1.11532271E-06-5.76895206E-08 3.79904599E-07 1.22506158E-02
 7 29-2.31330191E-07 9.60718017E-07 2.17586822E-02-3.85427708E-07-2.89177724E-07
 7 30 2.35799601E-07 5.33781229E-08-5.21932713E-03 4.85193636E-08-1.71162741E-03
 7 31 2.53059727E-08 3.31648744E-07 7.80446985E-03-1.88064102E-07-1.37666194E-07
 7 32 1.14292965E-07 2.33732290E-08-1.93859587E-03 4.26679387E-08 9.58423974E-04
 8  1-4.77349819E-04-5.11875623E-02-1.73157318E-02-1.41239143E-01-2.51451106E-02
 8  2-1.06079128E-05 1.84756565E-01-3.13463448E-02-1.30493060E-05 2.25993096E-01
 8  3-1.55500634E-02-7.64295315E-06 1.08873209E-01-1.86127625E-03-1.88968839E-03
 8  4 3.75096464E-03 1.42186446E-08-4.35232289E-04-2.86842184E-07-5.74309153E-03
 8  5-5.67538554E-03 1.14184771E-02 1.07914825E-07-1.99334442E-03-1.21533595E-06
 8  6 2.33123094E-04 1.31910950E-07 1.88907905E-03 6.02052410E-08-1.29451977E-03
 8  7 1.00296711E-04-1.23994573E-03-4.13064162E-04-2.37182351E-07 3.38729408E-08
 8  8-1.34698872E-02-1.11964692E-03-1.46259065E-06 9.16378062E-03 2.91150335E-03
 8  9 2.14409580E-03-5.05559915E-03-2.27598062E-07 1.18273235E-03-2.14523639E-07
 8 10 4.33821894E-04 3.73379399E-07 2.56699377E-03 1.53998994E-07-1.54477306E-03
 8 11 2.13834057E-04-1.89921048E-03-7.95867204E-04-6.54940024E-07 3.26754131E-08
 8 12 3.04236322E-04-5.61979405E-03-1.92658855E-03 1.60752461E-02-8.68677619E-02
 8 13 9.06007171E-06 3.15286383E-01-1.06379711E-01 1.10541355E-05 3.87335855E-01
 8 14-4.08223154E-02 8.27707363E-06 3.20621504E-01-1.21653563E-03 1.26950875E-04
 8 15 1.08958476E-03 1.04900547E-07 2.76091293E-03-8.22286859E-08-3.07151202E-03
 8 16-9.44398788E-04 4.01591081E-03 2.86596555E-07 9.62490281E-03-1.77819174E-07
 8 17-1.33784193E-03-1.94795025E-08-9.94175213E-04 1.03721084E-07 1.49270049E-03
 8 18 2.63346472E-04-1.58874471E-04 1.53155683E-03-7.75865895E-08-3.09125353E-08
 8 19-4.05355710E-02-7.17508959E-04 1.35386218E-06 4.74110051E-02 1.52949988E-02
 8 20 1.11757748E-03-1.64125762E-02-2.58914655E-07 1.31815323E-02-1.37989143E-06
 8 21 2.13950608E-05-1.03521147E-07 1.26975458E-03-5.89951557E-08 1.05069270E-03
 8 22-1.06629018E-03-2.75424724E-03 1.03758569E-03 1.97883348E-07-8.48556341E-08
 8 23 6.24910773E-02 1.53119591E-01 8.11704392E-02-1.01574696E-03 3.53554570E-07
 8 24-7.99420051E-03-9.33041410E-04 2.64392791E-06-4.48284493E-02-7.04370123E-05
 8 25-1.56566867E-04 2.27003879E-04 6.00064793E-11-7.94788518E-04-4.53449697E-07
 8 26 4.25243857E-03-3.23412951E-04 1.31616263E-06 3.50858934E-02-1.22974522E-02
 8 27-1.03417189E-02 2.26391711E-02 1.63937766E-07 5.15611917E-03-7.63362210E-07
 8 28 4.72702867E-03-4.94783855E-02-7.34260739E-03-3.24019237E-03 3.07398408E-07
 8 29 1.02817786E-02 9.95100018E-03 1.05442003E-07 2.08417321E-02 1.79972453E-03
 8 30 1.95117336E-04-1.99484186E-03-1.34930254E-07-3.98526030E-03 9.21254783E-08
 8 31-4.96346713E-03 2.70597348E-03-1.00285915E-07 2.54364653E-03 8.22199037E-04
 8 32-1.54174128E-03 7.19542243E-04-8.79677285E-08 3.87057710E-04 4.07867774E-08
 9  1 3.44073786E-06-1.31134358E-03-4.91937564E-04-6.57512417E-04 3.77268590E-01
 9  2-8.54864359E-05 1.94000897E-02 4.66584657E-01-1.05800721E-04 2.41778993E-02
 9  3 3.36420138E-01-7.66959690E-05 1.83018385E-02-2.31976937E-04-7.49487459E-05
 9  4 3.06925683E-04-1.31163798E-07 3.59500782E-03-8.18951337E-07-7.96773862E-04
 9  5-6.98080321E-05 8.66581894E-04-3.87252771E-07 1.11190671E-02-2.60993090E-06
 9  6-1.30747911E-03 2.91530010E-07 2.45986601E-04 1.43838192E-07-3.11420840E-04
 9  7-5.81259125E-04-1.86048166E-05 2.33542643E-03-5.34966744E-07-1.15831503E-07
 9  8-7.04950027E-03 3.43399406E-02-7.40580657E-06 1.05440185E-03 1.47676404E-04
 9  9-1.02410646E-03 8.76430061E-04-3.59572808E-07 8.54934651E-03-2.18170959E-06
 9 10-1.25589033E-03 3.48039324E-07 1.98724233E-04 1.34641383E-07-1.27258685E-04
 9 11-6.44784088E-04-1.39357851E-04 2.32973777E-03-6.01585136E-07-9.93548436E-08
 9 12-1.42675278E-04 2.15402487E-05 8.01577646E-05 7.33689001E-03-1.15076461E-02
 9 13 4.95912652E-06 2.02063593E-02-1.41497017E-02 6.15236559E-06 2.49387506E-02
 9 14-4.62983695E-03 4.33155506E-06 2.19842072E-02-2.20232933E-04 8.35413702E-05
 9 15 1.36691563E-04 5.24210205E-08 8.01034492E-06 3.13527025E-08-7.38640313E-04
 9 16-6.28104645E-05 8.01450778E-04 1.64846037E-07 3.65218715E-04 5.34815880E-08
 9 17-1.46493282E-04-1.89024160E-08-5.45628452E-05 3.58212508E-08 4.86962624E-05
 9 18 5.36436222E-05 2.45074761E-05 1.42897740E-04-1.04609985E-08 1.12601160E-08
 9 19 2.81079181E-03-7.63089124E-04 3.57463073E-07 3.29906763E-03 1.56346067E-03
 9 20 1.45193940E-04-1.70865461E-03 5.83484062E-08 3.94873292E-04 1.86271031E-07
 9 21-1.17474883E-04-5.03305826E-09 1.17262223E-04 1.91976157E-08 8.92006071E-05
 9 22-8.73962262E-05-2.46524389E-04 2.45005320E-04-1.24450594E-08 7.21033551E-09
 9 23 1.13399747E-03 3.20767533E-04 3.72123354E-03 1.18302228E-02-2.69397453E-06
 9 24 3.81232114E-06 2.24917587E-02-4.62289215E-06 2.20010075E-03 3.37381259E-04
 9 25 6.69779827E-05-4.04359242E-04 2.45757476E-07-5.41641118E-03 1.22870172E-06
 9 26 7.74012362E-04 5.81062232E-03-1.66852825E-06-7.77815220E-03 1.29127328E-05
 9 27 5.67439729E-04-5.80352462E-04-5.06498126E-08-4.76596341E-03 5.78887643E-07
 9 28-2.24292303E-03-1.33415261E-02 2.81775665E-03 4.91112928E-05 1.53389451E-07
 9 29 8.50192176E-04 2.45167715E-03 2.02303389E-07 1.46246009E-03 5.28593568E-05
 9 30 1.53262989E-04-2.06122346E-04-6.43017031E-08-2.64804581E-04-2.79831142E-08
 9 31-4.03252880E-04-1.01782672E-03 8.78698141E-08-5.05102675E-03-1.31412036E-03
 9 32-1.40850559E-03 2.72262595E-03 2.74881506E-08 7.91330163E-04 9.46831424E-08
10  1 2.93793631E-08-1.88069205E-07-9.56233732E-08 5.30370506E-09 8.43363597E-05
10  2 3.77926921E-01 2.09231308E-05 1.04276132E-04 4.67633795E-01 2.59711987E-05
10  3 7.49909913E-05 3.37522540E-01 1.91655918E-05-5.64459660E-08-2.87322685E-07
10  4 3.43768651E-07-9.76216383E-05 8.00485563E-07 3.58362628E-03-1.91938792E-07
10  5-8.51173276E-07 1.04311207E-06-3.80752372E-04 2.44371145E-06 1.12890360E-02