! NCCN-sdtq.inp
! -----------------
!
!  FORS-2 space (18 electrons in 18 orbitals)
!  using NATURAL ORBITALS (D2h-group)
!
!
 $CONTRL SCFTYP=NONE RUNTYP=ENERGY CITYP=GENCI MULT=1 ISPHER=1 $END
 $SYSTEM MWORDS=495 TIMLIM=3900 $END
 $cigen GLIST=EXTRNL group=d2h istsym=1 ncore=4 nact=18 nels=18
 NSTATE=1 $END
 $BASIS GBASIS=CCD $END
 $GUESS GUESS=MOREAD NORB=56 PURIFY=.TRUE. $END 
 $DATA
NCCN  (cc-pVDZ) . experimental geometry
DNH 2
 
NITROGEN   7.0     0.0      0.0      1.8485 
CARBON     6.0     0.0      0.0      0.6945 
 $END

 $VEC   
 1  1 7.08685138E-01 2.49476906E-03-7.50188604E-03 0.00000000E+00 0.00000000E+00
 1  2 2.31328639E-03 0.00000000E+00 0.00000000E+00-1.25233209E-03-4.37478386E-04
 1  3-4.37478386E-04 8.74956772E-04 0.00000000E+00 0.00000000E+00 0.00000000E+00
 1  4-7.08685138E-01-2.49476906E-03 7.50188604E-03 0.00000000E+00 0.00000000E+00
 1  5 2.31328639E-03 0.00000000E+00 0.00000000E+00-1.25233209E-03 4.37478386E-04
 1  6 4.37478386E-04-8.74956772E-04 0.00000000E+00 0.00000000E+00 0.00000000E+00
 1  7 7.88794381E-05-2.45245229E-04-7.96133240E-03 0.00000000E+00 0.00000000E+00
 1  8 1.86442086E-04 0.00000000E+00 0.00000000E+00-9.22567826E-03 9.55637371E-04
 1  9 9.55637371E-04-1.91127474E-03 0.00000000E+00 0.00000000E+00 0.00000000E+00
 1 10-7.88794381E-05 2.45245229E-04 7.96133240E-03 0.00000000E+00 0.00000000E+00
 1 11 1.86442086E-04 0.00000000E+00 0.00000000E+00-9.22567826E-03-9.55637371E-04
 1 12-9.55637371E-04 1.91127474E-03 0.00000000E+00 0.00000000E+00 0.00000000E+00
 2  1 7.08497069E-01 2.14899817E-03-7.76647472E-03 0.00000000E+00 0.00000000E+00
 2  2 1.98997272E-03 0.00000000E+00 0.00000000E+00-2.25115089E-03-3.15804157E-04
 2  3-3.15804157E-04 6.31608315E-04 0.00000000E+00 0.00000000E+00 0.00000000E+00
 2  4 7.08497069E-01 2.14899817E-03-7.76647472E-03 0.00000000E+00 0.00000000E+00
 2  5-1.98997272E-03 0.00000000E+00 0.00000000E+00 2.25115089E-03-3.15804157E-04
 2  6-3.15804157E-04 6.31608315E-04 0.00000000E+00 0.00000000E+00 0.00000000E+00
 2  7 2.54364036E-04 2.30133851E-04 4.63257505E-03 0.00000000E+00 0.00000000E+00
 2  8 8.55795860E-04 0.00000000E+00 0.00000000E+00-3.74155806E-03 3.82786967E-04
 2  9 3.82786967E-04-7.65573935E-04 0.00000000E+00 0.00000000E+00 0.00000000E+00
 2 10 2.54364036E-04 2.30133851E-04 4.63257505E-03 0.00000000E+00 0.00000000E+00
 2 11-8.55795860E-04 0.00000000E+00 0.00000000E+00 3.74155806E-03 3.82786967E-04
 2 12 3.82786967E-04-7.65573935E-04 0.00000000E+00 0.00000000E+00 0.00000000E+00
 3  1-4.50635051E-04 4.71707681E-04-3.64141194E-03 0.00000000E+00 0.00000000E+00
 3  2 2.54061832E-04 0.00000000E+00 0.00000000E+00-1.17413376E-03-1.92067796E-04
 3  3-1.92067796E-04 3.84135593E-04 0.00000000E+00 0.00000000E+00 0.00000000E+00
 3  4-4.50635051E-04 4.71707681E-04-3.64141194E-03 0.00000000E+00 0.00000000E+00
 3  5-2.54061832E-04 0.00000000E+00 0.00000000E+00 1.17413376E-03-1.92067796E-04
 3  6-1.92067796E-04 3.84135593E-04 0.00000000E+00 0.00000000E+00 0.00000000E+00
 3  7 7.07830597E-01 1.94159713E-03 1.01713566E-03 0.00000000E+00 0.00000000E+00
 3  8 8.04597185E-05 0.00000000E+00 0.00000000E+00-3.07791907E-03-3.75801802E-04
 3  9-3.75801802E-04 7.51603604E-04 0.00000000E+00 0.00000000E+00 0.00000000E+00
 3 10 7.07830597E-01 1.94159713E-03 1.01713566E-03 0.00000000E+00 0.00000000E+00
 3 11-8.04597185E-05 0.00000000E+00 0.00000000E+00 3.07791907E-03-3.75801802E-04
 3 12-3.75801802E-04 7.51603604E-04 0.00000000E+00 0.00000000E+00 0.00000000E+00
 4  1-1.00971736E-03-5.14149226E-04-3.33775889E-03 0.00000000E+00 0.00000000E+00
 4  2-3.65134279E-04 0.00000000E+00 0.00000000E+00-9.18158111E-04-8.56000542E-05
 4  3-8.56000542E-05 1.71200108E-04 0.00000000E+00 0.00000000E+00 0.00000000E+00
 4  4 1.00971736E-03 5.14149226E-04 3.33775889E-03 0.00000000E+00 0.00000000E+00
 4  5-3.65134279E-04 0.00000000E+00 0.00000000E+00-9.18158111E-04 8.56000542E-05
 4  6 8.56000542E-05-1.71200108E-04 0.00000000E+00 0.00000000E+00 0.00000000E+00
 4  7 7.09004923E-01 4.06980387E-03-4.76869333E-03 0.00000000E+00 0.00000000E+00
 4  8 1.51680355E-03 0.00000000E+00 0.00000000E+00-4.85022840E-03-1.52240605E-03
 4  9-1.52240605E-03 3.04481210E-03 0.00000000E+00 0.00000000E+00 0.00000000E+00
 4 10-7.09004923E-01-4.06980387E-03 4.76869333E-03 0.00000000E+00 0.00000000E+00
 4 11 1.51680355E-03 0.00000000E+00 0.00000000E+00-4.85022840E-03 1.52240605E-03
 4 12 1.52240605E-03-3.04481210E-03 0.00000000E+00 0.00000000E+00 0.00000000E+00
 5  1-1.14948775E-02 2.60436250E-01 2.38195156E-01 0.00000000E+00 0.00000000E+00
 5  2 6.84767945E-02 0.00000000E+00 0.00000000E+00-3.11147442E-03-5.88483901E-03
 5  3-5.88483901E-03 1.17696780E-02 0.00000000E+00 0.00000000E+00 0.00000000E+00
 5  4-1.14948775E-02 2.60436250E-01 2.38195156E-01 0.00000000E+00 0.00000000E+00
 5  5-6.84767945E-02 0.00000000E+00 0.00000000E+00 3.11147442E-03-5.88483901E-03
 5  6-5.88483901E-03 1.17696780E-02 0.00000000E+00 0.00000000E+00 0.00000000E+00
 5  7-1.75119373E-02 2.22671570E-01 9.81299417E-02 0.00000000E+00 0.00000000E+00
 5  8-5.64325240E-02 0.00000000E+00 0.00000000E+00 1.76447470E-02-1.42015877E-02
 5  9-1.42015877E-02 2.84031753E-02 0.00000000E+00 0.00000000E+00 0.00000000E+00
 5 10-1.75119373E-02 2.22671570E-01 9.81299417E-02 0.00000000E+00 0.00000000E+00
 5 11 5.64325240E-02 0.00000000E+00 0.00000000E+00-1.76447470E-02-1.42015877E-02
 5 12-1.42015877E-02 2.84031753E-02 0.00000000E+00 0.00000000E+00 0.00000000E+00
 6  1-7.59853260E-03 2.98537650E-01 2.47421630E-01 0.00000000E+00 0.00000000E+00
 6  2 8.18311820E-02 0.00000000E+00 0.00000000E+00-6.08721501E-03-6.82472645E-03
 6  3-6.82472645E-03 1.36494529E-02 0.00000000E+00 0.00000000E+00 0.00000000E+00
 6  4 7.59853260E-03-2.98537650E-01-2.47421630E-01 0.00000000E+00 0.00000000E+00
 6  5 8.18311820E-02 0.00000000E+00 0.00000000E+00-6.08721501E-03 6.82472645E-03
 6  6 6.82472645E-03-1.36494529E-02 0.00000000E+00 0.00000000E+00 0.00000000E+00
 6  7-1.35408093E-02 1.56407062E-01 7.24119167E-02 0.00000000E+00 0.00000000E+00
 6  8-1.53808818E-01 0.00000000E+00 0.00000000E+00-1.14221685E-02-5.69161959E-03
 6  9-5.69161959E-03 1.13832392E-02 0.00000000E+00 0.00000000E+00 0.00000000E+00
 6 10 1.35408093E-02-1.56407062E-01-7.24119167E-02 0.00000000E+00 0.00000000E+00
 6 11-1.53808818E-01 0.00000000E+00 0.00000000E+00-1.14221685E-02 5.69161959E-03
 6 12 5.69161959E-03-1.13832392E-02 0.00000000E+00 0.00000000E+00 0.00000000E+00
 7  1-5.83040137E-03-2.07784166E-01-1.97535133E-01 0.00000000E+00 0.00000000E+00
 7  2 1.95170149E-01 0.00000000E+00 0.00000000E+00 1.44342366E-01-5.71042588E-03
 7  3-5.71042588E-03 1.14208518E-02 0.00000000E+00 0.00000000E+00 0.00000000E+00
 7  4-5.83040137E-03-2.07784166E-01-1.97535133E-01 0.00000000E+00 0.00000000E+00
 7  5-1.95170149E-01 0.00000000E+00 0.00000000E+00-1.44342366E-01-5.71042588E-03
 7  6-5.71042588E-03 1.14208518E-02 0.00000000E+00 0.00000000E+00 0.00000000E+00
 7  7-3.24771169E-03 2.43290688E-01 7.05095810E-02 0.00000000E+00 0.00000000E+00
 7  8 1.43537010E-01 0.00000000E+00 0.00000000E+00 8.96436276E-02-7.54283978E-03
 7  9-7.54283978E-03 1.50856796E-02 0.00000000E+00 0.00000000E+00 0.00000000E+00
 7 10-3.24771169E-03 2.43290688E-01 7.05095810E-02 0.00000000E+00 0.00000000E+00
 7 11-1.43537010E-01 0.00000000E+00 0.00000000E+00-8.96436276E-02-7.54283978E-03
 7 12-7.54283978E-03 1.50856796E-02 0.00000000E+00 0.00000000E+00 0.00000000E+00
 8  1-5.63583829E-03-1.49820730E-01-1.84717870E-01 0.00000000E+00 0.00000000E+00
 8  2 3.64096793E-01 0.00000000E+00 0.00000000E+00 2.12298983E-01-1.20672990E-02
 8  3-1.20672990E-02 2.41345979E-02 0.00000000E+00 0.00000000E+00 0.00000000E+00
 8  4 5.63583829E-03 1.49820730E-01 1.84717870E-01 0.00000000E+00 0.00000000E+00
 8  5 3.64096793E-01 0.00000000E+00 0.00000000E+00 2.12298983E-01 1.20672990E-02
 8  6 1.20672990E-02-2.41345979E-02 0.00000000E+00 0.00000000E+00 0.00000000E+00
 8  7-6.79175830E-03 1.72224225E-01 2.11661192E-01 0.00000000E+00 0.00000000E+00
 8  8-1.42129789E-01 0.00000000E+00 0.00000000E+00 1.66522702E-01 4.55496579E-03
 8  9 4.55496579E-03-9.10993159E-03 0.00000000E+00 0.00000000E+00 0.00000000E+00
 8 10 6.79175830E-03-1.72224225E-01-2.11661192E-01 0.00000000E+00 0.00000000E+00
 8 11-1.42129789E-01 0.00000000E+00 0.00000000E+00 1.66522702E-01-4.55496579E-03
 8 12-4.55496579E-03 9.10993159E-03 0.00000000E+00 0.00000000E+00 0.00000000E+00
 9  1 4.51702688E-03 1.48061919E-02 7.59810524E-02 0.00000000E+00 0.00000000E+00
 9  2-3.25828285E-01 0.00000000E+00 0.00000000E+00-1.80626302E-01 1.12393106E-02
 9  3 1.12393106E-02-2.24786212E-02 0.00000000E+00 0.00000000E+00 0.00000000E+00
 9  4 4.51702688E-03 1.48061919E-02 7.59810524E-02 0.00000000E+00 0.00000000E+00
 9  5 3.25828285E-01 0.00000000E+00 0.00000000E+00 1.80626302E-01 1.12393106E-02
 9  6 1.12393106E-02-2.24786212E-02 0.00000000E+00 0.00000000E+00 0.00000000E+00
 9  7 1.62299686E-03 3.66976761E-02 1.30737894E-01 0.00000000E+00 0.00000000E+00
 9  8 3.80693464E-01 0.00000000E+00 0.00000000E+00 5.73252741E-03-6.31392853E-03
 9  9-6.31392853E-03 1.26278571E-02 0.00000000E+00 0.00000000E+00 0.00000000E+00
 9 10 1.62299686E-03 3.66976761E-02 1.30737894E-01 0.00000000E+00 0.00000000E+00
 9 11-3.80693464E-01 0.00000000E+00 0.00000000E+00-5.73252741E-03-6.31392853E-03
 9 12-6.31392853E-03 1.26278571E-02 0.00000000E+00 0.00000000E+00 0.00000000E+00
10  1 0.00000000E+00 0.00000000E+00 0.00000000E+00 2.70865983E-01 0.00000000E+00
10  2 0.00000000E+00 1.50295225E-01 0.00000000E+00 0.00000000E+00 0.00000000E+00
10  3 0.00000000E+00 0.00000000E+00 0.00000000E+00 2.89209309E-02 0.00000000E+00
10  4 0.00000000E+00 0.00000000E+00 0.00000000E+00 2.70865983E-01 0.00000000E+00
10  5 0.00000000E+00 1.50295225E-01 0.00000000E+00 0.00000000E+00 0.00000000E+00
10  6 0.00000000E+00 0.00000000E+00 0.00000000E+00-2.89209309E-02 0.00000000E+00
10  7 0.00000000E+00 0.00000000E+00 0.00000000E+00 3.32216624E-01 0.00000000E+00
10  8 0.00000000E+00 1.56292105E-01 0.00000000E+00 0.00000000E+00 0.00000000E+00
10  9 0.00000000E+00 0.00000000E+00 0.00000000E+00-1.27788358E-03 0.00000000E+00
10 10 0.00000000E+00 0.00000000E+00 0.00000000E+00 3.32216624E-01 0.00000000E+00
10 11 0.00000000E+00 1.56292105E-01 0.00000000E+00 0.00000000E+00 0.00000000E+00
10 12 0.00000000E+00 0.00000000E+00 0.00000000E+00 1.27788358E-03 0.00000000E+00
11  1 0.00000000E+00 0.00000000E+00 0.00000000E+00 0.00000000E+00 2.70865983E-01
11  2 0.00000000E+00 0.00000000E+00 1.50295225E-01 0.00000000E+00 0.00000000E+00
11  3 0.00000000E+00 0.00000000E+00 0.00000000E+00 0.00000000E+00 2.89209309E-02
11  4 0.00000000E+00 0.00000000E+00 0.00000000E+00 0.00000000E+00 2.70865983E-01
11  5 0.00000000E+00 0.00000000E+00 1.50295225E-01 0.00000000E+00 0.00000000E+00
11  6 0.00000000E+00 0.00000000E+00 0.00000000E+00 0.00000000E+00-2.89209309E-02
11  7 0.00000000E+00 0.00000000E+00 0.00000000E+00 0.00000000E+00 3.32216624E-01
11  8 0.00000000E+00 0.00000000E+00 1.56292105E-01 0.00000000E+00 0.00000000E+00
11  9 0.00000000E+00 0.00000000E+00 0.00000000E+00 0.00000000E+00-1.27788358E-03
11 10 0.00000000E+00 0.00000000E+00 0.00000000E+00 0.00000000E+00 3.32216624E-01
11 11 0.00000000E+00 0.00000000E+00 1.56292105E-01 0.00000000E+00 0.00000000E+00
11 12 0.00000000E+00 0.00000000E+00 0.00000000E+00 0.00000000E+00 1.27788358E-03
12  1 0.00000000E+00 0.00000000E+00 0.00000000E+00 3.44725812E-01 0.00000000E+00
12  2 0.00000000E+00 2.01722320E-01 0.00000000E+00 0.00000000E+00 0.00000000E+00
12  3 0.00000000E+00 0.00000000E+00 0.00000000E+00 2.42726253E-02 0.00000000E+00
12  4 0.00000000E+00 0.00000000E+00 0.00000000E+00-3.44725812E-01 0.00000000E+00
12  5 0.00000000E+00-2.01722320E-01 0.00000000E+00 0.00000000E+00 0.00000000E+00
12  6 0.00000000E+00 0.00000000E+00 0.00000000E+00 2.42726253E-02 0.00000000E+00
12  7 0.00000000E+00 0.00000000E+00 0.00000000E+00 2.71267695E-01 0.00000000E+00
12  8 0.00000000E+00 1.86770197E-01 0.00000000E+00 0.00000000E+00 0.00000000E+00
12  9 0.00000000E+00 0.00000000E+00 0.00000000E+00-4.58635400E-02 0.00000000E+00
12 10 0.00000000E+00 0.00000000E+00 0.00000000E+00-2.71267695E-01 0.00000000E+00
12 11 0.00000000E+00-1.86770197E-01 0.00000000E+00 0.00000000E+00 0.00000000E+00
12 12 0.00000000E+00 0.00000000E+00 0.00000000E+00-4.58635400E-02 0.00000000E+00
13  1 0.00000000E+00 0.00000000E+00 0.00000000E+00 0.00000000E+00 3.44725812E-01
13  2 0.00000000E+00 0.00000000E+00 2.01722320E-01 0.00000000E+00 0.00000000E+00
13  3 0.00000000E+00 0.00000000E+00 0.00000000E+00 0.00000000E+00 2.42726253E-02
13  4 0.00000000E+00 0.00000000E+00 0.00000000E+00 0.00000000E+00-3.44725812E-01
13  5 0.00000000E+00 0.00000000E+00-2.01722320E-01 0.00000000E+00 0.00000000E+00
13  6 0.00000000E+00 0.00000000E+00 0.00000000E+00 0.00000000E+00 2.42726253E-02
13  7 0.00000000E+00 0.00000000E+00 0.00000000E+00 0.00000000E+00 2.71267695E-01
13  8 0.00000000E+00 0.00000000E+00 1.86770197E-01 0.00000000E+00 0.00000000E+00
13  9 0.00000000E+00 0.00000000E+00 0.00000000E+00 0.00000000E+00-4.58635400E-02
13 10 0.00000000E+00 0.00000000E+00 0.00000000E+00 0.00000000E+00-2.71267695E-01
13 11 0.00000000E+00 0.00000000E+00-1.86770197E-01 0.00000000E+00 0.00000000E+00
13 12 0.00000000E+00 0.00000000E+00 0.00000000E+00 0.00000000E+00-4.58635400E-02
14  1 0.00000000E+00 0.00000000E+00 0.00000000E+00 0.00000000E+00 5.13898624E-01
14  2 0.00000000E+00 0.00000000E+00 1.38425623E-01 0.00000000E+00 0.00000000E+00
14  3 0.00000000E+00 0.00000000E+00 0.00000000E+00 0.00000000E+00-1.18725429E-02
14  4 0.00000000E+00 0.00000000E+00 0.00000000E+00 0.00000000E+00 5.13898624E-01
14  5 0.00000000E+00 0.00000000E+00 1.38425623E-01 0.00000000E+00 0.00000000E+00
14  6 0.00000000E+00 0.00000000E+00 0.00000000E+00 0.00000000E+00 1.18725429E-02
14  7 0.00000000E+00 0.00000000E+00 0.00000000E+00 0.00000000E+00-3.69561128E-01
14  8 0.00000000E+00 0.00000000E+00-1.16243058E-01 0.00000000E+00 0.00000000E+00
14  9 0.00000000E+00 0.00000000E+00 0.00000000E+00 0.00000000E+00-5.59522019E-02
14 10 0.00000000E+00 0.00000000E+00 0.00000000E+00 0.00000000E+00-3.69561128E-01
14 11 0.00000000E+00 0.00000000E+00-1.16243058E-01 0.00000000E+00 0.00000000E+00
14 12 0.00000000E+00 0.00000000E+00 0.00000000E+00 0.00000000E+00 5.59522019E-02
15  1 0.00000000E+00 0.00000000E+00 0.00000000E+00 5.13898624E-01 0.00000000E+00
15  2 0.00000000E+00 1.38425623E-01 0.00000000E+00 0.00000000E+00 0.00000000E+00
15  3 0.00000000E+00 0.00000000E+00 0.00000000E+00-1.18725429E-02 0.00000000E+00
15  4 0.00000000E+00 0.00000000E+00 0.00000000E+00 5.13898624E-01 0.00000000E+00
15  5 0.00000000E+00 1.38425623E-01 0.00000000E+00 0.00000000E+00 0.00000000E+00
15  6 0.00000000E+00 0.00000000E+00 0.00000000E+00 1.18725429E-02 0.00000000E+00
15  7 0.00000000E+00 0.00000000E+00 0.00000000E+00-3.69561128E-01 0.00000000E+00
15  8 0.00000000E+00-1.16243058E-01 0.00000000E+00 0.00000000E+00 0.00000000E+00
15  9 0.00000000E+00 0.00000000E+00 0.00000000E+00-5.59522019E-02 0.00000000E+00
15 10 0.00000000E+00 0.00000000E+00 0.00000000E+00-3.69561128E-01 0.00000000E+00
15 11 0.00000000E+00-1.16243058E-01 0.00000000E+00 0.00000000E+00 0.00000000E+00
15 12 0.00000000E+00 0.00000000E+00 0.00000000E+00 5.59522019E-02 0.00000000E+00
16  1 0.00000000E+00 0.00000000E+00 0.00000000E+00 0.00000000E+00-4.70549055E-01
16  2 0.00000000E+00 0.00000000E+00-1.21156006E-01 0.00000000E+00 0.00000000E+00
16  3 0.00000000E+00 0.00000000E+00 0.00000000E+00 0.00000000E+00 4.50098747E-02
16  4 0.00000000E+00 0.00000000E+00 0.00000000E+00 0.00000000E+00 4.70549055E-01
16  5 0.00000000E+00 0.00000000E+00 1.21156006E-01 0.00000000E+00 0.00000000E+00
16  6 0.00000000E+00 0.00000000E+00 0.00000000E+00 0.00000000E+00 4.50098747E-02
16  7 0.00000000E+00 0.00000000E+00 0.00000000E+00 0.00000000E+00 5.55014495E-01
16  8 0.00000000E+00 0.00000000E+00 2.06399063E-01 0.00000000E+00 0.00000000E+00
16  9 0.00000000E+00 0.00000000E+00 0.00000000E+00 0.00000000E+00-2.96770644E-02
16 10 0.00000000E+00 0.00000000E+00 0.00000000E+00 0.00000000E+00-5.55014495E-01
16 11 0.00000000E+00 0.00000000E+00-2.06399063E-01 0.00000000E+00 0.00000000E+00
16 12 0.00000000E+00 0.00000000E+00 0.00000000E+00 0.00000000E+00-2.96770644E-02
17  1 0.00000000E+00 0.00000000E+00 0.00000000E+00-4.70549055E-01 0.00000000E+00
17  2 0.00000000E+00-1.21156006E-01 0.00000000E+00 0.00000000E+00 0.00000000E+00
17  3 0.00000000E+00 0.00000000E+00 0.00000000E+00 4.50098747E-02 0.00000000E+00
17  4 0.00000000E+00 0.00000000E+00 0.00000000E+00 4.70549055E-01 0.00000000E+00
17  5 0.00000000E+00 1.21156006E-01 0.00000000E+00 0.00000000E+00 0.00000000E+00
17  6 0.00000000E+00 0.00000000E+00 0.00000000E+00 4.50098747E-02 0.00000000E+00
17  7 0.00000000E+00 0.00000000E+00 0.00000000E+00 5.55014495E-01 0.00000000E+00
17  8 0.00000000E+00 2.06399063E-01 0.00000000E+00 0.00000000E+00 0.00000000E+00
17  9 0.00000000E+00 0.00000000E+00 0.00000000E+00-2.96770644E-02 0.00000000E+00
17 10 0.00000000E+00 0.00000000E+00 0.00000000E+00-5.55014495E-01 0.00000000E+00
17 11 0.00000000E+00-2.06399063E-01 0.00000000E+00 0.00000000E+00 0.00000000E+00
17 12 0.00000000E+00 0.00000000E+00 0.00000000E+00-2.96770644E-02 0.00000000E+00
18  1-5.72925462E-02-2.28934479E-01-1.89467788E-02 0.00000000E+00 0.00000000E+00
18  2-4.76428739E-01 0.00000000E+00 0.00000000E+00 1.37892930E-02 9.29301479E-03
18  3 9.29301479E-03-1.85860296E-02 0.00000000E+00 0.00000000E+00 0.00000000E+00
18  4 5.72925462E-02 2.28934479E-01 1.89467788E-02 0.00000000E+00 0.00000000E+00
18  5-4.76428739E-01 0.00000000E+00 0.00000000E+00 1.37892930E-02-9.29301479E-03
18  6-9.29301479E-03 1.85860296E-02 0.00000000E+00 0.00000000E+00 0.00000000E+00
18  7 1.50530896E-01 6.37820224E-01 5.83050765E-01 0.00000000E+00 0.00000000E+00
18  8 1.13776950E-01 0.00000000E+00 0.00000000E+00 2.83662431E-01 1.75788897E-02
18  9 1.75788897E-02-3.51577795E-02 0.00000000E+00 0.00000000E+00 0.00000000E+00
18 10-1.50530896E-01-6.37820224E-01-5.83050765E-01 0.00000000E+00 0.00000000E+00
18 11 1.13776950E-01 0.00000000E+00 0.00000000E+00 2.83662431E-01-1.75788897E-02
18 12-1.75788897E-02 3.51577795E-02 0.00000000E+00 0.00000000E+00 0.00000000E+00
19  1 7.79985775E-02 2.99182949E-01 1.38173179E-01 0.00000000E+00 0.00000000E+00
19  2 5.93912931E-01 0.00000000E+00 0.00000000E+00 1.16219030E-02 2.07354202E-02
19  3 2.07354202E-02-4.14708404E-02 0.00000000E+00 0.00000000E+00 0.00000000E+00
19  4 7.79985775E-02 2.99182949E-01 1.38173179E-01 0.00000000E+00 0.00000000E+00
19  5-5.93912931E-01 0.00000000E+00 0.00000000E+00-1.16219030E-02 2.07354202E-02
19  6 2.07354202E-02-4.14708404E-02 0.00000000E+00 0.00000000E+00 0.00000000E+00
19  7-1.32695847E-01-4.19835193E-01-1.00474718E-01 0.00000000E+00 0.00000000E+00
19  8 5.44889218E-01 0.00000000E+00 0.00000000E+00-5.65943512E-02-5.77026635E-02
19  9-5.77026635E-02 1.15405327E-01 0.00000000E+00 0.00000000E+00 0.00000000E+00
19 10-1.32695847E-01-4.19835193E-01-1.00474718E-01 0.00000000E+00 0.00000000E+00
19 11-5.44889218E-01 0.00000000E+00 0.00000000E+00 5.65943512E-02-5.77026635E-02
19 12-5.77026635E-02 1.15405327E-01 0.00000000E+00 0.00000000E+00 0.00000000E+00
20  1-3.44358079E-02-5.11179824E-02 4.28688213E-01 0.00000000E+00 0.00000000E+00
20  2 4.68075589E-01 0.00000000E+00 0.00000000E+00 7.38137901E-02 8.97196345E-02
20  3 8.97196345E-02-1.79439269E-01 0.00000000E+00 0.00000000E+00 0.00000000E+00
20  4 3.44358079E-02 5.11179824E-02-4.28688213E-01 0.00000000E+00 0.00000000E+00
20  5 4.68075589E-01 0.00000000E+00 0.00000000E+00 7.38137901E-02-8.97196345E-02
20  6-8.97196345E-02 1.79439269E-01 0.00000000E+00 0.00000000E+00 0.00000000E+00
20  7-3.37166705E-02-5.51375102E-02-1.63057172E-01 0.00000000E+00 0.00000000E+00
20  8 8.73587398E-01 0.00000000E+00 0.00000000E+00-1.72441918E-01 1.65874179E-02
20  9 1.65874179E-02-3.31748358E-02 0.00000000E+00 0.00000000E+00 0.00000000E+00
20 10 3.37166705E-02 5.51375102E-02 1.63057172E-01 0.00000000E+00 0.00000000E+00
20 11 8.73587398E-01 0.00000000E+00 0.00000000E+00-1.72441918E-01-1.65874179E-02
20 12-1.65874179E-02 3.31748358E-02 0.00000000E+00 0.00000000E+00 0.00000000E+00
21  1 3.23474622E-01 8.42487931E-01-5.67868134E-01 0.00000000E+00 0.00000000E+00
21  2-3.62849343E-01 0.00000000E+00 0.00000000E+00 4.65816395E-01-1.98202504E-02
21  3-1.98202504E-02 3.96405008E-02 0.00000000E+00 0.00000000E+00 0.00000000E+00
21  4 3.23474622E-01 8.42487931E-01-5.67868134E-01 0.00000000E+00 0.00000000E+00
21  5 3.62849343E-01 0.00000000E+00 0.00000000E+00-4.65816395E-01-1.98202504E-02
21  6-1.98202504E-02 3.96405008E-02 0.00000000E+00 0.00000000E+00 0.00000000E+00
21  7 2.77473969E-02 7.53447927E-02-3.45891203E-01 0.00000000E+00 0.00000000E+00
21  8-1.82161385E-02 0.00000000E+00 0.00000000E+00 2.08387947E-01-3.74643627E-02
21  9-3.74643627E-02 7.49287254E-02 0.00000000E+00 0.00000000E+00 0.00000000E+00
21 10 2.77473969E-02 7.53447927E-02-3.45891203E-01 0.00000000E+00 0.00000000E+00
21 11 1.82161385E-02 0.00000000E+00 0.00000000E+00-2.08387947E-01-3.74643627E-02
21 12-3.74643627E-02 7.49287254E-02 0.00000000E+00 0.00000000E+00 0.00000000E+00
22  1 3.42384272E-01 8.98693070E-01-4.46783259E-01 0.00000000E+00 0.00000000E+00
22  2-2.19302354E-01 0.00000000E+00 0.00000000E+00 4.94725156E-01 2.68809818E-02
22  3 2.68809818E-02-5.37619635E-02 0.00000000E+00 0.00000000E+00 0.00000000E+00
22  4-3.42384272E-01-8.98693070E-01 4.46783259E-01 0.00000000E+00 0.00000000E+00
22  5-2.19302354E-01 0.00000000E+00 0.00000000E+00 4.94725156E-01-2.68809818E-02
22  6-2.68809818E-02 5.37619635E-02 0.00000000E+00 0.00000000E+00 0.00000000E+00
22  7-1.56192050E-02-2.97701195E-02 3.96112141E-01 0.00000000E+00 0.00000000E+00
22  8 3.05978382E-01 0.00000000E+00 0.00000000E+00 5.36037863E-01-2.68941097E-02
22  9-2.68941097E-02 5.37882195E-02 0.00000000E+00 0.00000000E+00 0.00000000E+00
22 10 1.56192050E-02 2.97701195E-02-3.96112141E-01 0.00000000E+00 0.00000000E+00
22 11 3.05978382E-01 0.00000000E+00 0.00000000E+00 5.36037863E-01 2.68941097E-02
22 12 2.68941097E-02-5.37882195E-02 0.00000000E+00 0.00000000E+00 0.00000000E+00
23  1 0.00000000E+00 0.00000000E+00 0.00000000E+00 0.00000000E+00-5.56913287E-02
23  2 0.00000000E+00 0.00000000E+00 2.62415366E-01 0.00000000E+00 0.00000000E+00
23  3 0.00000000E+00 0.00000000E+00 0.00000000E+00 0.00000000E+00-3.22665603E-01
23  4 0.00000000E+00 0.00000000E+00 0.00000000E+00 0.00000000E+00-5.56913287E-02
23  5 0.00000000E+00 0.00000000E+00 2.62415366E-01 0.00000000E+00 0.00000000E+00
23  6 0.00000000E+00 0.00000000E+00 0.00000000E+00 0.00000000E+00 3.22665603E-01
23  7 0.00000000E+00 0.00000000E+00 0.00000000E+00 0.00000000E+00-3.30822746E-01
23  8 0.00000000E+00 0.00000000E+00 2.05377581E-01 0.00000000E+00 0.00000000E+00
23  9 0.00000000E+00 0.00000000E+00 0.00000000E+00 0.00000000E+00 3.45612414E-01
23 10 0.00000000E+00 0.00000000E+00 0.00000000E+00 0.00000000E+00-3.30822746E-01
23 11 0.00000000E+00 0.00000000E+00 2.05377581E-01 0.00000000E+00 0.00000000E+00
23 12 0.00000000E+00 0.00000000E+00 0.00000000E+00 0.00000000E+00-3.45612414E-01
24  1 0.00000000E+00 0.00000000E+00 0.00000000E+00-5.56913287E-02 0.00000000E+00
24  2 0.00000000E+00 2.62415366E-01 0.00000000E+00 0.00000000E+00 0.00000000E+00
24  3 0.00000000E+00 0.00000000E+00 0.00000000E+00-3.22665603E-01 0.00000000E+00
24  4 0.00000000E+00 0.00000000E+00 0.00000000E+00-5.56913287E-02 0.00000000E+00
24  5 0.00000000E+00 2.62415366E-01 0.00000000E+00 0.00000000E+00 0.00000000E+00
24  6 0.00000000E+00 0.00000000E+00 0.00000000E+00 3.22665603E-01 0.00000000E+00
24  7 0.00000000E+00 0.00000000E+00 0.00000000E+00-3.30822746E-01 0.00000000E+00
24  8 0.00000000E+00 2.05377581E-01 0.00000000E+00 0.00000000E+00 0.00000000E+00
24  9 0.00000000E+00 0.00000000E+00 0.00000000E+00 3.45612414E-01 0.00000000E+00
24 10 0.00000000E+00 0.00000000E+00 0.00000000E+00-3.30822746E-01 0.00000000E+00
24 11 0.00000000E+00 2.05377581E-01 0.00000000E+00 0.00000000E+00 0.00000000E+00
24 12 0.00000000E+00 0.00000000E+00 0.00000000E+00-3.45612414E-01 0.00000000E+00
25  1 4.97423822E-02 1.05410517E-01 1.70521725E-01 0.00000000E+00 0.00000000E+00
25  2-7.47629068E-02 0.00000000E+00 0.00000000E+00 4.89961371E-01 1.77268690E-01
25  3 1.77268690E-01-3.54537380E-01 0.00000000E+00 0.00000000E+00 0.00000000E+00
25  4 4.97423822E-02 1.05410517E-01 1.70521725E-01 0.00000000E+00 0.00000000E+00
25  5 7.47629068E-02 0.00000000E+00 0.00000000E+00-4.89961371E-01 1.77268690E-01
25  6 1.77268690E-01-3.54537380E-01 0.00000000E+00 0.00000000E+00 0.00000000E+00
25  7-1.76692526E-01-4.87015253E-01 1.74062182E-01 0.00000000E+00 0.00000000E+00
25  8 1.25758569E-01 0.00000000E+00 0.00000000E+00 1.47930819E-02 1.36315783E-01
25  9 1.36315783E-01-2.72631566E-01 0.00000000E+00 0.00000000E+00 0.00000000E+00
25 10-1.76692526E-01-4.87015253E-01 1.74062182E-01 0.00000000E+00 0.00000000E+00
25 11-1.25758569E-01 0.00000000E+00 0.00000000E+00-1.47930819E-02 1.36315783E-01
25 12 1.36315783E-01-2.72631566E-01 0.00000000E+00 0.00000000E+00 0.00000000E+00
26  1 0.00000000E+00 0.00000000E+00 0.00000000E+00-4.26208816E-01 0.00000000E+00
26  2 0.00000000E+00 4.88832347E-01 0.00000000E+00 0.00000000E+00 0.00000000E+00
26  3 0.00000000E+00 0.00000000E+00 0.00000000E+00-3.11013994E-01 0.00000000E+00
26  4 0.00000000E+00 0.00000000E+00 0.00000000E+00 4.26208816E-01 0.00000000E+00
26  5 0.00000000E+00-4.88832347E-01 0.00000000E+00 0.00000000E+00 0.00000000E+00
26  6 0.00000000E+00 0.00000000E+00 0.00000000E+00-3.11013994E-01 0.00000000E+00
26  7 0.00000000E+00 0.00000000E+00 0.00000000E+00-2.11693723E-01 0.00000000E+00
26  8 0.00000000E+00 4.20338521E-01 0.00000000E+00 0.00000000E+00 0.00000000E+00
26  9 0.00000000E+00 0.00000000E+00 0.00000000E+00 1.68071799E-01 0.00000000E+00
26 10 0.00000000E+00 0.00000000E+00 0.00000000E+00 2.11693723E-01 0.00000000E+00
26 11 0.00000000E+00-4.20338521E-01 0.00000000E+00 0.00000000E+00 0.00000000E+00
26 12 0.00000000E+00 0.00000000E+00 0.00000000E+00 1.68071799E-01 0.00000000E+00
27  1 0.00000000E+00 0.00000000E+00 0.00000000E+00 0.00000000E+00-4.26208816E-01
27  2 0.00000000E+00 0.00000000E+00 4.88832347E-01 0.00000000E+00 0.00000000E+00
27  3 0.00000000E+00 0.00000000E+00 0.00000000E+00 0.00000000E+00-3.11013994E-01
27  4 0.00000000E+00 0.00000000E+00 0.00000000E+00 0.00000000E+00 4.26208816E-01
27  5 0.00000000E+00 0.00000000E+00-4.88832347E-01 0.00000000E+00 0.00000000E+00
27  6 0.00000000E+00 0.00000000E+00 0.00000000E+00 0.00000000E+00-3.11013994E-01
27  7 0.00000000E+00 0.00000000E+00 0.00000000E+00 0.00000000E+00-2.11693723E-01
27  8 0.00000000E+00 0.00000000E+00 4.20338521E-01 0.00000000E+00 0.00000000E+00
27  9 0.00000000E+00 0.00000000E+00 0.00000000E+00 0.00000000E+00 1.68071799E-01
27 10 0.00000000E+00 0.00000000E+00 0.00000000E+00 0.00000000E+00 2.11693723E-01
27 11 0.00000000E+00 0.00000000E+00-4.20338521E-01 0.00000000E+00 0.00000000E+00
27 12 0.00000000E+00 0.00000000E+00 0.00000000E+00 0.00000000E+00 1.68071799E-01
28  1 0.00000000E+00 0.00000000E+00 0.00000000E+00 0.00000000E+00 0.00000000E+00
28  2 0.00000000E+00 0.00000000E+00 0.00000000E+00 0.00000000E+00 0.00000000E+00
28  3 0.00000000E+00 0.00000000E+00 4.15047588E-01 0.00000000E+00 0.00000000E+00
28  4 0.00000000E+00 0.00000000E+00 0.00000000E+00 0.00000000E+00 0.00000000E+00
28  5 0.00000000E+00 0.00000000E+00 0.00000000E+00 0.00000000E+00 0.00000000E+00
28  6 0.00000000E+00 0.00000000E+00 4.15047588E-01 0.00000000E+00 0.00000000E+00
28  7 0.00000000E+00 0.00000000E+00 0.00000000E+00 0.00000000E+00 0.00000000E+00
28  8 0.00000000E+00 0.00000000E+00 0.00000000E+00 0.00000000E+00 0.00000000E+00
28  9 0.00000000E+00 0.00000000E+00 4.67659522E-01 0.00000000E+00 0.00000000E+00
28 10 0.00000000E+00 0.00000000E+00 0.00000000E+00 0.00000000E+00 0.00000000E+00
28 11 0.00000000E+00 0.00000000E+00 0.00000000E+00 0.00000000E+00 0.00000000E+00
28 12 0.00000000E+00 0.00000000E+00 4.67659522E-01 0.00000000E+00 0.00000000E+00
29  1 2.05150238E-15-3.46473202E-15-2.90337367E-14 0.00000000E+00 0.00000000E+00
29  2 2.34629474E-14 0.00000000E+00 0.00000000E+00-2.75366988E-14-3.59441751E-01
29  3 3.59441751E-01 4.80077622E-15 0.00000000E+00 0.00000000E+00 0.00000000E+00
29  4 2.05150238E-15-3.46473202E-15-2.90337367E-14 0.00000000E+00 0.00000000E+00
29  5-2.34629474E-14 0.00000000E+00 0.00000000E+00 2.75366988E-14-3.59441751E-01
29  6 3.59441751E-01 4.80077622E-15 0.00000000E+00 0.00000000E+00 0.00000000E+00
29  7-1.17502939E-15-6.38275279E-15 4.83327026E-14 0.00000000E+00 0.00000000E+00
29  8 1.58866365E-14 0.00000000E+00 0.00000000E+00-4.01763655E-14-4.05005029E-01
29  9 4.05005029E-01-2.13083879E-14 0.00000000E+00 0.00000000E+00 0.00000000E+00
29 10-1.17502939E-15-6.38275279E-15 4.83327026E-14 0.00000000E+00 0.00000000E+00
29 11-1.58866365E-14 0.00000000E+00 0.00000000E+00 4.01763655E-14-4.05005029E-01
29 12 4.05005029E-01-2.13083879E-14 0.00000000E+00 0.00000000E+00 0.00000000E+00
30  1 1.05847148E-01 2.76024123E-01-2.42634359E-01 0.00000000E+00 0.00000000E+00
30  2 3.25144738E-01 0.00000000E+00 0.00000000E+00-5.20740457E-01-1.87973684E-01
30  3-1.87973684E-01 3.75947367E-01 0.00000000E+00 0.00000000E+00 0.00000000E+00
30  4-1.05847148E-01-2.76024123E-01 2.42634359E-01 0.00000000E+00 0.00000000E+00
30  5 3.25144738E-01 0.00000000E+00 0.00000000E+00-5.20740457E-01 1.87973684E-01
30  6 1.87973684E-01-3.75947367E-01 0.00000000E+00 0.00000000E+00 0.00000000E+00
30  7 2.33477718E-01 6.12433800E-01 1.52479757E-01 0.00000000E+00 0.00000000E+00
30  8 5.56238349E-01 0.00000000E+00 0.00000000E+00 2.28500818E-01-1.20333930E-01
30  9-1.20333930E-01 2.40667859E-01 0.00000000E+00 0.00000000E+00 0.00000000E+00
30 10-2.33477718E-01-6.12433800E-01-1.52479757E-01 0.00000000E+00 0.00000000E+00
30 11 5.56238349E-01 0.00000000E+00 0.00000000E+00 2.28500818E-01 1.20333930E-01
30 12 1.20333930E-01-2.40667859E-01 0.00000000E+00 0.00000000E+00 0.00000000E+00
31  1-3.81253418E-14-9.96377917E-14 1.16657578E-13 0.00000000E+00 0.00000000E+00
31  2-7.54153485E-14 0.00000000E+00 0.00000000E+00 1.62908457E-13 4.41368049E-01
31  3-4.41368049E-01-8.80861469E-14 0.00000000E+00 0.00000000E+00 0.00000000E+00