! OCO-sdtq56.inp
! -------------
!
!
! SPLIT-LOCALIZED Molecular Orbitals (C2v-group)
! generated from SD-CI NATURAL ORBITALS 
! active space: [16/16]
! basis set: cc-pVTZ
! up to x=6 excitations
!
!
 $CONTRL SCFTYP=NONE RUNTYP=ENERGY CITYP=GENCI MULT=1 ISPHER=1 $END
 $SYSTEM MWORDS=495 TIMLIM=5000 $END
 $cigen GLIST=EXTRNL group=c2v istsym=1 ncore=3 nact=16 nels=16
 NSTATE=1 $END
 $BASIS GBASIS=CCT $END
 $GUESS GUESS=MOREAD NORB=90 PURIFY=.TRUE. $END 
 $DATA
CO2..(cc-pVTZ)...experimental-geometry
CNV   2

CARBON   6.0      0.0     0.0       0.0 
OXYGEN   8.0      0.0     0.0      1.1615 
OXYGEN   8.0      0.0     0.0     -1.1615 
 $END

 $VEC
 1  1 0.00000000E+00 0.00000000E+00 0.00000000E+00 0.00000000E+00 0.00000000E+00
 1  2 0.00000000E+00 6.59039139E-04 0.00000000E+00 0.00000000E+00 1.35830073E-03
 1  3 0.00000000E+00 0.00000000E+00-1.31706902E-03 0.00000000E+00 0.00000000E+00
 1  4 0.00000000E+00 0.00000000E+00 0.00000000E+00 0.00000000E+00 0.00000000E+00
 1  5 0.00000000E+00 0.00000000E+00 0.00000000E+00 0.00000000E+00 0.00000000E+00
 1  6 0.00000000E+00 0.00000000E+00-3.77092516E-04 0.00000000E+00 2.52961350E-04
 1  7 0.00000000E+00 2.52961350E-04 0.00000000E+00 0.00000000E+00 0.00000000E+00
 1  8 6.89998419E-01-5.65784686E-04 3.07409064E-02 2.34961360E-03 0.00000000E+00
 1  9 0.00000000E+00-1.56492357E-03 0.00000000E+00 0.00000000E+00 9.91440713E-04
 1 10 0.00000000E+00 0.00000000E+00-3.39649772E-05-1.02801312E-04-1.02801312E-04
 1 11 2.05602624E-04 0.00000000E+00 0.00000000E+00 0.00000000E+00 1.91620188E-04
 1 12 1.91620188E-04-3.83240376E-04 0.00000000E+00 0.00000000E+00 0.00000000E+00
 1 13 0.00000000E+00 0.00000000E+00 1.23685582E-05 0.00000000E+00-8.29708106E-06
 1 14 0.00000000E+00-8.29708106E-06 0.00000000E+00 0.00000000E+00 0.00000000E+00
 1 15-6.89998419E-01 5.65784686E-04-3.07409064E-02-2.34961360E-03 0.00000000E+00
 1 16 0.00000000E+00-1.56492357E-03 0.00000000E+00 0.00000000E+00 9.91440713E-04
 1 17 0.00000000E+00 0.00000000E+00-3.39649770E-05 1.02801312E-04 1.02801312E-04
 1 18-2.05602624E-04 0.00000000E+00 0.00000000E+00 0.00000000E+00-1.91620188E-04
 1 19-1.91620188E-04 3.83240376E-04 0.00000000E+00 0.00000000E+00 0.00000000E+00
 1 20 0.00000000E+00 0.00000000E+00 1.23685582E-05 0.00000000E+00-8.29708108E-06
 1 21 0.00000000E+00-8.29708108E-06 0.00000000E+00 0.00000000E+00 0.00000000E+00
 2  1 1.27419655E-03 2.70786674E-03 3.93728886E-05-1.73634758E-04 0.00000000E+00
 2  2 0.00000000E+00 0.00000000E+00 0.00000000E+00 0.00000000E+00 0.00000000E+00
 2  3 0.00000000E+00 0.00000000E+00 0.00000000E+00-3.52711254E-04-3.52711254E-04
 2  4 7.05422508E-04 0.00000000E+00 0.00000000E+00 0.00000000E+00-7.41795256E-04
 2  5-7.41795256E-04 1.48359051E-03 0.00000000E+00 0.00000000E+00 0.00000000E+00
 2  6 0.00000000E+00 0.00000000E+00 0.00000000E+00 0.00000000E+00 0.00000000E+00
 2  7 0.00000000E+00 0.00000000E+00 0.00000000E+00 0.00000000E+00 0.00000000E+00
 2  8 6.89545950E-01-1.40213177E-03 3.08173683E-02 1.18358991E-03 0.00000000E+00
 2  9 0.00000000E+00-1.59687644E-03 0.00000000E+00 0.00000000E+00 1.73714773E-03
 2 10 0.00000000E+00 0.00000000E+00-2.48826484E-04-4.56917370E-05-4.56917370E-05
 2 11 9.13834740E-05 0.00000000E+00 0.00000000E+00 0.00000000E+00 2.41130740E-04
 2 12 2.41130740E-04-4.82261480E-04 0.00000000E+00 0.00000000E+00 0.00000000E+00
 2 13 0.00000000E+00 0.00000000E+00 1.41855053E-04 0.00000000E+00-9.51592626E-05
 2 14 0.00000000E+00-9.51592626E-05 0.00000000E+00 0.00000000E+00 0.00000000E+00
 2 15 6.89545950E-01-1.40213177E-03 3.08173683E-02 1.18358991E-03 0.00000000E+00
 2 16 0.00000000E+00 1.59687644E-03 0.00000000E+00 0.00000000E+00-1.73714773E-03
 2 17 0.00000000E+00 0.00000000E+00 2.48826485E-04-4.56917370E-05-4.56917370E-05
 2 18 9.13834740E-05 0.00000000E+00 0.00000000E+00 0.00000000E+00 2.41130740E-04
 2 19 2.41130740E-04-4.82261480E-04 0.00000000E+00 0.00000000E+00 0.00000000E+00
 2 20 0.00000000E+00 0.00000000E+00-1.41855053E-04 0.00000000E+00 9.51592626E-05
 2 21 0.00000000E+00 9.51592626E-05 0.00000000E+00 0.00000000E+00 0.00000000E+00
 3  1 9.77827481E-01 2.02368132E-04 4.16484971E-02-1.57185886E-04 0.00000000E+00
 3  2 0.00000000E+00 0.00000000E+00 0.00000000E+00 0.00000000E+00 0.00000000E+00
 3  3 0.00000000E+00 0.00000000E+00 0.00000000E+00-8.97538245E-04-8.97538245E-04
 3  4 1.79507649E-03 0.00000000E+00 0.00000000E+00 0.00000000E+00 7.06592826E-04
 3  5 7.06592826E-04-1.41318565E-03 0.00000000E+00 0.00000000E+00 0.00000000E+00
 3  6 0.00000000E+00 0.00000000E+00 0.00000000E+00 0.00000000E+00 0.00000000E+00
 3  7 0.00000000E+00 0.00000000E+00 0.00000000E+00 0.00000000E+00 0.00000000E+00
 3  8-1.86046548E-04 6.59149017E-04 2.89380906E-04 1.36920323E-03 0.00000000E+00
 3  9 0.00000000E+00-4.27660137E-04 0.00000000E+00 0.00000000E+00-1.61161158E-04
 3 10 0.00000000E+00 0.00000000E+00-5.23243649E-04-2.88657298E-05-2.88657298E-05
 3 11 5.77314596E-05 0.00000000E+00 0.00000000E+00 0.00000000E+00 2.19431787E-04
 3 12 2.19431787E-04-4.38863573E-04 0.00000000E+00 0.00000000E+00 0.00000000E+00
 3 13 0.00000000E+00 0.00000000E+00 1.78945343E-05 0.00000000E+00-1.20040185E-05
 3 14 0.00000000E+00-1.20040185E-05 0.00000000E+00 0.00000000E+00 0.00000000E+00
 3 15-1.86046548E-04 6.59149017E-04 2.89380905E-04 1.36920323E-03 0.00000000E+00
 3 16 0.00000000E+00 4.27660137E-04 0.00000000E+00 0.00000000E+00 1.61161159E-04
 3 17 0.00000000E+00 0.00000000E+00 5.23243649E-04-2.88657298E-05-2.88657298E-05
 3 18 5.77314596E-05 0.00000000E+00 0.00000000E+00 0.00000000E+00 2.19431786E-04
 3 19 2.19431786E-04-4.38863573E-04 0.00000000E+00 0.00000000E+00 0.00000000E+00
 3 20 0.00000000E+00 0.00000000E+00-1.78945343E-05 0.00000000E+00 1.20040185E-05
 3 21 0.00000000E+00 1.20040185E-05 0.00000000E+00 0.00000000E+00 0.00000000E+00
 4  1-6.42440955E-03-1.17738300E-01-3.47156474E-02 8.53127399E-03 0.00000000E+00
 4  2 0.00000000E+00 5.68920456E-02 0.00000000E+00 0.00000000E+00 5.77093906E-02
 4  3 0.00000000E+00 0.00000000E+00-2.97658038E-02-3.38916529E-04-3.38916529E-04
 4  4 6.77833058E-04 0.00000000E+00 0.00000000E+00 0.00000000E+00-8.78653739E-03
 4  5-8.78653739E-03 1.75730748E-02 0.00000000E+00 0.00000000E+00 0.00000000E+00
 4  6 0.00000000E+00 0.00000000E+00 1.53368608E-03 0.00000000E+00-1.02882790E-03
 4  7 0.00000000E+00-1.02882790E-03 0.00000000E+00 0.00000000E+00 0.00000000E+00
 4  8-2.38651810E-03 7.76545708E-03 3.26253845E-03 1.11257874E-02 0.00000000E+00
 4  9 0.00000000E+00-1.18666197E-02 0.00000000E+00 0.00000000E+00-1.38990025E-02
 4 10 0.00000000E+00 0.00000000E+00-5.27517550E-03-1.91327076E-04-1.91327076E-04
 4 11 3.82654152E-04 0.00000000E+00 0.00000000E+00 0.00000000E+00-1.15681133E-03
 4 12-1.15681133E-03 2.31362266E-03 0.00000000E+00 0.00000000E+00 0.00000000E+00
 4 13 0.00000000E+00 0.00000000E+00-6.85151665E-04 0.00000000E+00 4.59613709E-04
 4 14 0.00000000E+00 4.59613709E-04 0.00000000E+00 0.00000000E+00 0.00000000E+00
 4 15-1.25328030E-03 4.71791519E-01 1.32628893E-01 3.46115467E-01 0.00000000E+00
 4 16 0.00000000E+00-2.12428078E-01 0.00000000E+00 0.00000000E+00-2.51626699E-01
 4 17 0.00000000E+00 0.00000000E+00-1.67220308E-01 3.13520665E-03 3.13520665E-03
 4 18-6.27041330E-03 0.00000000E+00 0.00000000E+00 0.00000000E+00 7.77502755E-03
 4 19 7.77502755E-03-1.55500551E-02 0.00000000E+00 0.00000000E+00 0.00000000E+00
 4 20 0.00000000E+00 0.00000000E+00-2.60448517E-03 0.00000000E+00 1.74714176E-03
 4 21 0.00000000E+00 1.74714176E-03 0.00000000E+00 0.00000000E+00 0.00000000E+00
 5  1-6.42439347E-03-1.17738556E-01-3.47157126E-02 8.53123322E-03 0.00000000E+00
 5  2 0.00000000E+00-5.68920198E-02 0.00000000E+00 0.00000000E+00-5.77093705E-02
 5  3 0.00000000E+00 0.00000000E+00 2.97658018E-02-3.38905993E-04-3.38905993E-04
 5  4 6.77811986E-04 0.00000000E+00 0.00000000E+00 0.00000000E+00-8.78652964E-03
 5  5-8.78652964E-03 1.75730593E-02 0.00000000E+00 0.00000000E+00 0.00000000E+00
 5  6 0.00000000E+00 0.00000000E+00-1.53368535E-03 0.00000000E+00 1.02882741E-03
 5  7 0.00000000E+00 1.02882741E-03 0.00000000E+00 0.00000000E+00 0.00000000E+00
 5  8-1.25327523E-03 4.71791434E-01 1.32628870E-01 3.46115475E-01 0.00000000E+00
 5  9 0.00000000E+00 2.12428144E-01 0.00000000E+00 0.00000000E+00 2.51626772E-01
 5 10 0.00000000E+00 0.00000000E+00 1.67220330E-01 3.13520883E-03 3.13520883E-03
 5 11-6.27041766E-03 0.00000000E+00 0.00000000E+00 0.00000000E+00 7.77502985E-03
 5 12 7.77502985E-03-1.55500597E-02 0.00000000E+00 0.00000000E+00 0.00000000E+00
 5 13 0.00000000E+00 0.00000000E+00 2.60448651E-03 0.00000000E+00-1.74714267E-03
 5 14 0.00000000E+00-1.74714267E-03 0.00000000E+00 0.00000000E+00 0.00000000E+00
 5 15-2.38651146E-03 7.76533675E-03 3.26250714E-03 1.11257851E-02 0.00000000E+00
 5 16 0.00000000E+00 1.18665184E-02 0.00000000E+00 0.00000000E+00 1.38988858E-02
 5 17 0.00000000E+00 0.00000000E+00 5.27513316E-03-1.91323811E-04-1.91323811E-04
 5 18 3.82647621E-04 0.00000000E+00 0.00000000E+00 0.00000000E+00-1.15680608E-03
 5 19-1.15680608E-03 2.31361216E-03 0.00000000E+00 0.00000000E+00 0.00000000E+00
 5 20 0.00000000E+00 0.00000000E+00 6.85148971E-04 0.00000000E+00-4.59611902E-04
 5 21 0.00000000E+00-4.59611902E-04 0.00000000E+00 0.00000000E+00 0.00000000E+00
 6  1-1.97859252E-02 3.09309751E-01 7.88518292E-02 4.96602691E-02 0.00000000E+00
 6  2 0.00000000E+00-1.85414307E-01 0.00000000E+00 0.00000000E+00-1.43386115E-01
 6  3 0.00000000E+00 0.00000000E+00 1.27436111E-02-1.28079243E-02-1.28079243E-02
 6  4 2.56158486E-02 0.00000000E+00 0.00000000E+00 0.00000000E+00-9.51233974E-03
 6  5-9.51233974E-03 1.90246795E-02 0.00000000E+00 0.00000000E+00 0.00000000E+00
 6  6 0.00000000E+00 0.00000000E+00-5.19355625E-03 0.00000000E+00 3.48394345E-03
 6  7 0.00000000E+00 3.48394345E-03 0.00000000E+00 0.00000000E+00 0.00000000E+00
 6  8-3.97523722E-04-1.87906280E-02-3.03335433E-03-5.20200884E-02 0.00000000E+00
 6  9 0.00000000E+00 1.91520691E-02 0.00000000E+00 0.00000000E+00 3.74195941E-02
 6 10 0.00000000E+00 0.00000000E+00 2.93031857E-02 5.88256020E-04 5.88256020E-04
 6 11-1.17651204E-03 0.00000000E+00 0.00000000E+00 0.00000000E+00 6.00506541E-03
 6 12 6.00506541E-03-1.20101308E-02 0.00000000E+00 0.00000000E+00 0.00000000E+00
 6 13 0.00000000E+00 0.00000000E+00 2.38012322E-03 0.00000000E+00-1.59663520E-03
 6 14 0.00000000E+00-1.59663520E-03 0.00000000E+00 0.00000000E+00 0.00000000E+00
 6 15-1.35702639E-02 2.74795593E-01 7.03986659E-02 4.97169103E-02 0.00000000E+00
 6 16 0.00000000E+00 2.20455071E-01 0.00000000E+00 0.00000000E+00 2.64931815E-01
 6 17 0.00000000E+00 0.00000000E+00 1.05669274E-01-7.16605270E-03-7.16605270E-03
 6 18 1.43321054E-02 0.00000000E+00 0.00000000E+00 0.00000000E+00-1.50803265E-02
 6 19-1.50803265E-02 3.01606530E-02 0.00000000E+00 0.00000000E+00 0.00000000E+00
 6 20 0.00000000E+00 0.00000000E+00 7.26918794E-03 0.00000000E+00-4.87631951E-03
 6 21 0.00000000E+00-4.87631951E-03 0.00000000E+00 0.00000000E+00 0.00000000E+00
 7  1-1.97859245E-02 3.09309772E-01 7.88518353E-02 4.96602689E-02 0.00000000E+00
 7  2 0.00000000E+00 1.85414257E-01 0.00000000E+00 0.00000000E+00 1.43386065E-01
 7  3 0.00000000E+00 0.00000000E+00-1.27435864E-02-1.28079244E-02-1.28079244E-02
 7  4 2.56158489E-02 0.00000000E+00 0.00000000E+00 0.00000000E+00-9.51233874E-03
 7  5-9.51233874E-03 1.90246775E-02 0.00000000E+00 0.00000000E+00 0.00000000E+00
 7  6 0.00000000E+00 0.00000000E+00 5.19355491E-03 0.00000000E+00-3.48394255E-03
 7  7 0.00000000E+00-3.48394255E-03 0.00000000E+00 0.00000000E+00 0.00000000E+00
 7  8-1.35702633E-02 2.74795750E-01 7.03987099E-02 4.97170227E-02 0.00000000E+00
 7  9 0.00000000E+00-2.20454992E-01 0.00000000E+00 0.00000000E+00-2.64931721E-01
 7 10 0.00000000E+00 0.00000000E+00-1.05669213E-01-7.16605151E-03-7.16605151E-03
 7 11 1.43321030E-02 0.00000000E+00 0.00000000E+00 0.00000000E+00-1.50803231E-02
 7 12-1.50803231E-02 3.01606463E-02 0.00000000E+00 0.00000000E+00 0.00000000E+00
 7 13 0.00000000E+00 0.00000000E+00-7.26918669E-03 0.00000000E+00 4.87631868E-03
 7 14 0.00000000E+00 4.87631868E-03 0.00000000E+00 0.00000000E+00 0.00000000E+00
 7 15-3.97524158E-04-1.87908467E-02-3.03341555E-03-5.20202498E-02 0.00000000E+00
 7 16 0.00000000E+00-1.91519593E-02 0.00000000E+00 0.00000000E+00-3.74194641E-02
 7 17 0.00000000E+00 0.00000000E+00-2.93031019E-02 5.88254324E-04 5.88254324E-04
 7 18-1.17650865E-03 0.00000000E+00 0.00000000E+00 0.00000000E+00 6.00506104E-03
 7 19 6.00506104E-03-1.20101221E-02 0.00000000E+00 0.00000000E+00 0.00000000E+00
 7 20 0.00000000E+00 0.00000000E+00-2.38012160E-03 0.00000000E+00 1.59663411E-03
 7 21 0.00000000E+00 1.59663411E-03 0.00000000E+00 0.00000000E+00 0.00000000E+00
 8  1 0.00000000E+00 0.00000000E+00 0.00000000E+00 0.00000000E+00 0.00000000E+00
 8  2 1.45573803E-01 0.00000000E+00 0.00000000E+00 1.88663347E-01 0.00000000E+00
 8  3 0.00000000E+00 5.68522194E-02 0.00000000E+00 0.00000000E+00 0.00000000E+00
 8  4 0.00000000E+00 0.00000000E+00 0.00000000E+00 2.85938665E-02 0.00000000E+00
 8  5 0.00000000E+00 0.00000000E+00 0.00000000E+00 0.00000000E+00 4.70635079E-02
 8  6 0.00000000E+00-7.83315382E-03 0.00000000E+00-3.50309346E-03 0.00000000E+00
 8  7 0.00000000E+00 0.00000000E+00 0.00000000E+00 1.40123721E-02 0.00000000E+00
 8  8 0.00000000E+00 0.00000000E+00 0.00000000E+00 0.00000000E+00 0.00000000E+00
 8  9 3.24823619E-01 0.00000000E+00 0.00000000E+00 4.02048775E-01 0.00000000E+00
 8 10 0.00000000E+00 2.73847087E-01 0.00000000E+00 0.00000000E+00 0.00000000E+00
 8 11 0.00000000E+00 0.00000000E+00 0.00000000E+00-1.07697960E-02 0.00000000E+00
 8 12 0.00000000E+00 0.00000000E+00 0.00000000E+00 0.00000000E+00-2.84260879E-02
 8 13 0.00000000E+00-3.71265383E-03 0.00000000E+00-1.66034577E-03 0.00000000E+00
 8 14 0.00000000E+00 0.00000000E+00 0.00000000E+00 6.64139358E-03 0.00000000E+00
 8 15 0.00000000E+00 0.00000000E+00 0.00000000E+00 0.00000000E+00 0.00000000E+00
 8 16-4.17393607E-02 0.00000000E+00 0.00000000E+00-5.20493083E-02 0.00000000E+00
 8 17 0.00000000E+00-6.53536333E-02 0.00000000E+00 0.00000000E+00 0.00000000E+00
 8 18 0.00000000E+00 0.00000000E+00 0.00000000E+00 1.70049638E-03 0.00000000E+00
 8 19 0.00000000E+00 0.00000000E+00 0.00000000E+00 0.00000000E+00-7.04432654E-04
 8 20 0.00000000E+00-1.24569158E-05 0.00000000E+00-5.57125882E-06 0.00000000E+00
 8 21 0.00000000E+00 0.00000000E+00 0.00000000E+00 2.22839651E-05 0.00000000E+00
 9  1 0.00000000E+00 0.00000000E+00 0.00000000E+00 0.00000000E+00 1.45573803E-01
 9  2 0.00000000E+00 0.00000000E+00 1.88663347E-01 0.00000000E+00 0.00000000E+00
 9  3 5.68522194E-02 0.00000000E+00 0.00000000E+00 0.00000000E+00 0.00000000E+00
 9  4 0.00000000E+00 0.00000000E+00 2.85938665E-02 0.00000000E+00 0.00000000E+00
 9  5 0.00000000E+00 0.00000000E+00 0.00000000E+00 4.70635079E-02 0.00000000E+00
 9  6-7.83315382E-03 0.00000000E+00 0.00000000E+00 0.00000000E+00 0.00000000E+00
 9  7-3.50309346E-03 0.00000000E+00 1.40123721E-02 0.00000000E+00 0.00000000E+00
 9  8 0.00000000E+00 0.00000000E+00 0.00000000E+00 0.00000000E+00 3.24823619E-01
 9  9 0.00000000E+00 0.00000000E+00 4.02048775E-01 0.00000000E+00 0.00000000E+00
 9 10 2.73847087E-01 0.00000000E+00 0.00000000E+00 0.00000000E+00 0.00000000E+00
 9 11 0.00000000E+00 0.00000000E+00-1.07697960E-02 0.00000000E+00 0.00000000E+00
 9 12 0.00000000E+00 0.00000000E+00 0.00000000E+00-2.84260879E-02 0.00000000E+00
 9 13-3.71265383E-03 0.00000000E+00 0.00000000E+00 0.00000000E+00 0.00000000E+00
 9 14-1.66034577E-03 0.00000000E+00 6.64139358E-03 0.00000000E+00 0.00000000E+00
 9 15 0.00000000E+00 0.00000000E+00 0.00000000E+00 0.00000000E+00-4.17393607E-02
 9 16 0.00000000E+00 0.00000000E+00-5.20493083E-02 0.00000000E+00 0.00000000E+00
 9 17-6.53536333E-02 0.00000000E+00 0.00000000E+00 0.00000000E+00 0.00000000E+00
 9 18 0.00000000E+00 0.00000000E+00 1.70049638E-03 0.00000000E+00 0.00000000E+00
 9 19 0.00000000E+00 0.00000000E+00 0.00000000E+00-7.04432654E-04 0.00000000E+00
 9 20-1.24569158E-05 0.00000000E+00 0.00000000E+00 0.00000000E+00 0.00000000E+00
 9 21-5.57125881E-06 0.00000000E+00 2.22839651E-05 0.00000000E+00 0.00000000E+00
10  1 0.00000000E+00 0.00000000E+00 0.00000000E+00 0.00000000E+00 1.45573803E-01
10  2 0.00000000E+00 0.00000000E+00 1.88663347E-01 0.00000000E+00 0.00000000E+00
10  3 5.68522195E-02 0.00000000E+00 0.00000000E+00 0.00000000E+00 0.00000000E+00
10  4 0.00000000E+00 0.00000000E+00-2.85938665E-02 0.00000000E+00 0.00000000E+00
10  5 0.00000000E+00 0.00000000E+00 0.00000000E+00-4.70635079E-02 0.00000000E+00
10  6-7.83315383E-03 0.00000000E+00 0.00000000E+00 0.00000000E+00 0.00000000E+00
10  7-3.50309346E-03 0.00000000E+00 1.40123721E-02 0.00000000E+00 0.00000000E+00
10  8 0.00000000E+00 0.00000000E+00 0.00000000E+00 0.00000000E+00-4.17393605E-02
10  9 0.00000000E+00 0.00000000E+00-5.20493080E-02 0.00000000E+00 0.00000000E+00
10 10-6.53536331E-02 0.00000000E+00 0.00000000E+00 0.00000000E+00 0.00000000E+00
10 11 0.00000000E+00 0.00000000E+00-1.70049639E-03 0.00000000E+00 0.00000000E+00
10 12 0.00000000E+00 0.00000000E+00 0.00000000E+00 7.04432634E-04 0.00000000E+00
10 13-1.24569184E-05 0.00000000E+00 0.00000000E+00 0.00000000E+00 0.00000000E+00
10 14-5.57126000E-06 0.00000000E+00 2.22839698E-05 0.00000000E+00 0.00000000E+00
10 15 0.00000000E+00 0.00000000E+00 0.00000000E+00 0.00000000E+00 3.24823619E-01
10 16 0.00000000E+00 0.00000000E+00 4.02048775E-01 0.00000000E+00 0.00000000E+00
10 17 2.73847087E-01 0.00000000E+00 0.00000000E+00 0.00000000E+00 0.00000000E+00
10 18 0.00000000E+00 0.00000000E+00 1.07697960E-02 0.00000000E+00 0.00000000E+00
10 19 0.00000000E+00 0.00000000E+00 0.00000000E+00 2.84260879E-02 0.00000000E+00
10 20-3.71265383E-03 0.00000000E+00 0.00000000E+00 0.00000000E+00 0.00000000E+00
10 21-1.66034577E-03 0.00000000E+00 6.64139358E-03 0.00000000E+00 0.00000000E+00
11  1 0.00000000E+00 0.00000000E+00 0.00000000E+00 0.00000000E+00 0.00000000E+00
11  2 1.45573803E-01 0.00000000E+00 0.00000000E+00 1.88663347E-01 0.00000000E+00
11  3 0.00000000E+00 5.68522195E-02 0.00000000E+00 0.00000000E+00 0.00000000E+00
11  4 0.00000000E+00 0.00000000E+00 0.00000000E+00-2.85938665E-02 0.00000000E+00
11  5 0.00000000E+00 0.00000000E+00 0.00000000E+00 0.00000000E+00-4.70635079E-02
11  6 0.00000000E+00-7.83315383E-03 0.00000000E+00-3.50309346E-03 0.00000000E+00
11  7 0.00000000E+00 0.00000000E+00 0.00000000E+00 1.40123721E-02 0.00000000E+00
11  8 0.00000000E+00 0.00000000E+00 0.00000000E+00 0.00000000E+00 0.00000000E+00
11  9-4.17393605E-02 0.00000000E+00 0.00000000E+00-5.20493080E-02 0.00000000E+00
11 10 0.00000000E+00-6.53536331E-02 0.00000000E+00 0.00000000E+00 0.00000000E+00
11 11 0.00000000E+00 0.00000000E+00 0.00000000E+00-1.70049639E-03 0.00000000E+00
11 12 0.00000000E+00 0.00000000E+00 0.00000000E+00 0.00000000E+00 7.04432634E-04
11 13 0.00000000E+00-1.24569184E-05 0.00000000E+00-5.57126001E-06 0.00000000E+00
11 14 0.00000000E+00 0.00000000E+00 0.00000000E+00 2.22839698E-05 0.00000000E+00
11 15 0.00000000E+00 0.00000000E+00 0.00000000E+00 0.00000000E+00 0.00000000E+00
11 16 3.24823619E-01 0.00000000E+00 0.00000000E+00 4.02048775E-01 0.00000000E+00
11 17 0.00000000E+00 2.73847087E-01 0.00000000E+00 0.00000000E+00 0.00000000E+00
11 18 0.00000000E+00 0.00000000E+00 0.00000000E+00 1.07697960E-02 0.00000000E+00
11 19 0.00000000E+00 0.00000000E+00 0.00000000E+00 0.00000000E+00 2.84260879E-02
11 20 0.00000000E+00-3.71265383E-03 0.00000000E+00-1.66034577E-03 0.00000000E+00
11 21 0.00000000E+00 0.00000000E+00 0.00000000E+00 6.64139358E-03 0.00000000E+00
12  1 0.00000000E+00 0.00000000E+00 0.00000000E+00 0.00000000E+00 0.00000000E+00
12  2 2.23791921E-01 0.00000000E+00 0.00000000E+00 3.29205038E-01 0.00000000E+00
12  3 0.00000000E+00 6.01959116E-02 0.00000000E+00 0.00000000E+00 0.00000000E+00
12  4 0.00000000E+00 0.00000000E+00 0.00000000E+00-1.11532783E-01 0.00000000E+00
12  5 0.00000000E+00 0.00000000E+00 0.00000000E+00 0.00000000E+00-2.22448252E-01
12  6 0.00000000E+00-2.12271963E-02 0.00000000E+00-9.49309121E-03 0.00000000E+00
12  7 0.00000000E+00 0.00000000E+00 0.00000000E+00 3.79723635E-02 0.00000000E+00
12  8 0.00000000E+00 0.00000000E+00 0.00000000E+00 0.00000000E+00 0.00000000E+00
12  9 8.45967127E-02 0.00000000E+00 0.00000000E+00-8.20652915E-02 0.00000000E+00
12 10 0.00000000E+00-2.80808772E-01 0.00000000E+00 0.00000000E+00 0.00000000E+00
12 11 0.00000000E+00 0.00000000E+00 0.00000000E+00 2.10492279E-02 0.00000000E+00
12 12 0.00000000E+00 0.00000000E+00 0.00000000E+00 0.00000000E+00 3.98845478E-02
12 13 0.00000000E+00 2.77259166E-03 0.00000000E+00 1.23990599E-03 0.00000000E+00
12 14 0.00000000E+00 0.00000000E+00 0.00000000E+00-4.95972805E-03 0.00000000E+00
12 15 0.00000000E+00 0.00000000E+00 0.00000000E+00 0.00000000E+00 0.00000000E+00
12 16-5.62394463E-01 0.00000000E+00 0.00000000E+00-3.70098102E-01 0.00000000E+00
12 17 0.00000000E+00 3.45108656E-01 0.00000000E+00 0.00000000E+00 0.00000000E+00
12 18 0.00000000E+00 0.00000000E+00 0.00000000E+00 4.86280560E-02 0.00000000E+00
12 19 0.00000000E+00 0.00000000E+00 0.00000000E+00 0.00000000E+00 8.29267470E-02
12 20 0.00000000E+00-3.69940758E-03 0.00000000E+00-1.65439668E-03 0.00000000E+00
12 21 0.00000000E+00 0.00000000E+00 0.00000000E+00 6.61767277E-03 0.00000000E+00
13  1 0.00000000E+00 0.00000000E+00 0.00000000E+00 0.00000000E+00 2.23791921E-01
13  2 0.00000000E+00 0.00000000E+00 3.29205038E-01 0.00000000E+00 0.00000000E+00
13  3 6.01959116E-02 0.00000000E+00 0.00000000E+00 0.00000000E+00 0.00000000E+00
13  4 0.00000000E+00 0.00000000E+00-1.11532783E-01 0.00000000E+00 0.00000000E+00
13  5 0.00000000E+00 0.00000000E+00 0.00000000E+00-2.22448252E-01 0.00000000E+00
13  6-2.12271963E-02 0.00000000E+00 0.00000000E+00 0.00000000E+00 0.00000000E+00
13  7-9.49309121E-03 0.00000000E+00 3.79723635E-02 0.00000000E+00 0.00000000E+00
13  8 0.00000000E+00 0.00000000E+00 0.00000000E+00 0.00000000E+00 8.45967127E-02
13  9 0.00000000E+00 0.00000000E+00-8.20652915E-02 0.00000000E+00 0.00000000E+00
13 10-2.80808772E-01 0.00000000E+00 0.00000000E+00 0.00000000E+00 0.00000000E+00
13 11 0.00000000E+00 0.00000000E+00 2.10492279E-02 0.00000000E+00 0.00000000E+00
13 12 0.00000000E+00 0.00000000E+00 0.00000000E+00 3.98845478E-02 0.00000000E+00
13 13 2.77259166E-03 0.00000000E+00 0.00000000E+00 0.00000000E+00 0.00000000E+00
13 14 1.23990599E-03 0.00000000E+00-4.95972805E-03 0.00000000E+00 0.00000000E+00
13 15 0.00000000E+00 0.00000000E+00 0.00000000E+00 0.00000000E+00-5.62394463E-01
13 16 0.00000000E+00 0.00000000E+00-3.70098102E-01 0.00000000E+00 0.00000000E+00
13 17 3.45108656E-01 0.00000000E+00 0.00000000E+00 0.00000000E+00 0.00000000E+00
13 18 0.00000000E+00 0.00000000E+00 4.86280560E-02 0.00000000E+00 0.00000000E+00
13 19 0.00000000E+00 0.00000000E+00 0.00000000E+00 8.29267470E-02 0.00000000E+00
13 20-3.69940758E-03 0.00000000E+00 0.00000000E+00 0.00000000E+00 0.00000000E+00
13 21-1.65439668E-03 0.00000000E+00 6.61767277E-03 0.00000000E+00 0.00000000E+00
14  1 7.28436062E-02 5.24874819E-01 1.79221997E-01 9.27756821E-02 0.00000000E+00
14  2 0.00000000E+00-4.20996665E-01 0.00000000E+00 0.00000000E+00-5.25245182E-01
14  3 0.00000000E+00 0.00000000E+00-1.64023681E-02 5.57043795E-03 5.57043795E-03
14  4-1.11408759E-02 0.00000000E+00 0.00000000E+00 0.00000000E+00-1.84923326E-02
14  5-1.84923326E-02 3.69846652E-02 0.00000000E+00 0.00000000E+00 0.00000000E+00
14  6 0.00000000E+00 0.00000000E+00-2.98326070E-02 0.00000000E+00 2.00123211E-02
14  7 0.00000000E+00 2.00123211E-02 0.00000000E+00 0.00000000E+00 0.00000000E+00
14  8 8.43433218E-03 2.42913222E-02 2.16935794E-02 9.68900960E-02 0.00000000E+00
14  9 0.00000000E+00 1.14510442E-02 0.00000000E+00 0.00000000E+00 2.86049576E-03
14 10 0.00000000E+00 0.00000000E+00-6.12406252E-02 2.08029927E-02 2.08029927E-02
14 11-4.16059854E-02 0.00000000E+00 0.00000000E+00 0.00000000E+00 3.27780263E-02
14 12 3.27780263E-02-6.55560526E-02 0.00000000E+00 0.00000000E+00 0.00000000E+00
14 13 0.00000000E+00 0.00000000E+00 1.68448338E-02 0.00000000E+00-1.12998580E-02
14 14 0.00000000E+00-1.12998580E-02 0.00000000E+00 0.00000000E+00 0.00000000E+00
14 15-4.81253832E-02-4.97034411E-01-2.98241765E-01-7.79747992E-02 0.00000000E+00
14 16 0.00000000E+00-4.06875899E-01 0.00000000E+00 0.00000000E+00-5.14606741E-01
14 17 0.00000000E+00 0.00000000E+00-8.12781544E-02-2.89839703E-02-2.89839703E-02
14 18 5.79679406E-02 0.00000000E+00 0.00000000E+00 0.00000000E+00-3.95214391E-02
14 19-3.95214391E-02 7.90428783E-02 0.00000000E+00 0.00000000E+00 0.00000000E+00
14 20 0.00000000E+00 0.00000000E+00 9.72716668E-03 0.00000000E+00-6.52518178E-03
14 21 0.00000000E+00-6.52518178E-03 0.00000000E+00 0.00000000E+00 0.00000000E+00
15  1 7.28435980E-02 5.24874760E-01 1.79221978E-01 9.27756709E-02 0.00000000E+00
15  2 0.00000000E+00 4.20996748E-01 0.00000000E+00 0.00000000E+00 5.25245221E-01
15  3 0.00000000E+00 0.00000000E+00 1.64023545E-02 5.57043732E-03 5.57043732E-03
15  4-1.11408746E-02 0.00000000E+00 0.00000000E+00 0.00000000E+00-1.84923297E-02
15  5-1.84923297E-02 3.69846593E-02 0.00000000E+00 0.00000000E+00 0.00000000E+00
15  6 0.00000000E+00 0.00000000E+00 2.98325952E-02 0.00000000E+00-2.00123133E-02
15  7 0.00000000E+00-2.00123133E-02 0.00000000E+00 0.00000000E+00 0.00000000E+00
15  8-4.81253826E-02-4.97034291E-01-2.98241644E-01-7.79750116E-02 0.00000000E+00
15  9 0.00000000E+00 4.06875970E-01 0.00000000E+00 0.00000000E+00 5.14606746E-01
15 10 0.00000000E+00 0.00000000E+00 8.12780955E-02-2.89839747E-02-2.89839747E-02
15 11 5.79679494E-02 0.00000000E+00 0.00000000E+00 0.00000000E+00-3.95214490E-02
15 12-3.95214490E-02 7.90428981E-02 0.00000000E+00 0.00000000E+00 0.00000000E+00
15 13 0.00000000E+00 0.00000000E+00-9.72717140E-03 0.00000000E+00 6.52518494E-03
15 14 0.00000000E+00 6.52518494E-03 0.00000000E+00 0.00000000E+00 0.00000000E+00
15 15 8.43433595E-03 2.42912661E-02 2.16935006E-02 9.68902893E-02 0.00000000E+00
15 16 0.00000000E+00-1.14509304E-02 0.00000000E+00 0.00000000E+00-2.86043267E-03
15 17 0.00000000E+00 0.00000000E+00 6.12405728E-02 2.08029979E-02 2.08029979E-02
15 18-4.16059958E-02 0.00000000E+00 0.00000000E+00 0.00000000E+00 3.27780368E-02
15 19 3.27780368E-02-6.55560735E-02 0.00000000E+00 0.00000000E+00 0.00000000E+00
15 20 0.00000000E+00 0.00000000E+00-1.68448376E-02 0.00000000E+00 1.12998606E-02
15 21 0.00000000E+00 1.12998606E-02 0.00000000E+00 0.00000000E+00 0.00000000E+00
16  1 0.00000000E+00 0.00000000E+00 0.00000000E+00 0.00000000E+00 0.00000000E+00
16  2 2.23791921E-01 0.00000000E+00 0.00000000E+00 3.29205038E-01 0.00000000E+00
16  3 0.00000000E+00 6.01959116E-02 0.00000000E+00 0.00000000E+00 0.00000000E+00
16  4 0.00000000E+00 0.00000000E+00 0.00000000E+00 1.11532783E-01 0.00000000E+00
16  5 0.00000000E+00 0.00000000E+00 0.00000000E+00 0.00000000E+00 2.22448252E-01
16  6 0.00000000E+00-2.12271963E-02 0.00000000E+00-9.49309121E-03 0.00000000E+00
16  7 0.00000000E+00 0.00000000E+00 0.00000000E+00 3.79723635E-02 0.00000000E+00
16  8 0.00000000E+00 0.00000000E+00 0.00000000E+00 0.00000000E+00 0.00000000E+00
16  9-5.62394463E-01 0.00000000E+00 0.00000000E+00-3.70098102E-01 0.00000000E+00
16 10 0.00000000E+00 3.45108656E-01 0.00000000E+00 0.00000000E+00 0.00000000E+00
16 11 0.00000000E+00 0.00000000E+00 0.00000000E+00-4.86280560E-02 0.00000000E+00
16 12 0.00000000E+00 0.00000000E+00 0.00000000E+00 0.00000000E+00-8.29267470E-02
16 13 0.00000000E+00-3.69940758E-03 0.00000000E+00-1.65439668E-03 0.00000000E+00
16 14 0.00000000E+00 0.00000000E+00 0.00000000E+00 6.61767277E-03 0.00000000E+00
16 15 0.00000000E+00 0.00000000E+00 0.00000000E+00 0.00000000E+00 0.00000000E+00
16 16 8.45967127E-02 0.00000000E+00 0.00000000E+00-8.20652915E-02 0.00000000E+00
16 17 0.00000000E+00-2.80808772E-01 0.00000000E+00 0.00000000E+00 0.00000000E+00
16 18 0.00000000E+00 0.00000000E+00 0.00000000E+00-2.10492279E-02 0.00000000E+00
16 19 0.00000000E+00 0.00000000E+00 0.00000000E+00 0.00000000E+00-3.98845478E-02
16 20 0.00000000E+00 2.77259166E-03 0.00000000E+00 1.23990599E-03 0.00000000E+00
16 21 0.00000000E+00 0.00000000E+00 0.00000000E+00-4.95972805E-03 0.00000000E+00
17  1 0.00000000E+00 0.00000000E+00 0.00000000E+00 0.00000000E+00 2.23791921E-01
17  2 0.00000000E+00 0.00000000E+00 3.29205038E-01 0.00000000E+00 0.00000000E+00
17  3 6.01959116E-02 0.00000000E+00 0.00000000E+00 0.00000000E+00 0.00000000E+00
17  4 0.00000000E+00 0.00000000E+00 1.11532783E-01 0.00000000E+00 0.00000000E+00
17  5 0.00000000E+00 0.00000000E+00 0.00000000E+00 2.22448252E-01 0.00000000E+00
17  6-2.12271963E-02 0.00000000E+00 0.00000000E+00 0.00000000E+00 0.00000000E+00
17  7-9.49309121E-03 0.00000000E+00 3.79723635E-02 0.00000000E+00 0.00000000E+00
17  8 0.00000000E+00 0.00000000E+00 0.00000000E+00 0.00000000E+00-5.62394463E-01
17  9 0.00000000E+00 0.00000000E+00-3.70098102E-01 0.00000000E+00 0.00000000E+00
17 10 3.45108656E-01 0.00000000E+00 0.00000000E+00 0.00000000E+00 0.00000000E+00
17 11 0.00000000E+00 0.00000000E+00-4.86280560E-02 0.00000000E+00 0.00000000E+00
17 12 0.00000000E+00 0.00000000E+00 0.00000000E+00-8.29267470E-02 0.00000000E+00
17 13-3.69940758E-03 0.00000000E+00 0.00000000E+00 0.00000000E+00 0.00000000E+00
17 14-1.65439668E-03 0.00000000E+00 6.61767277E-03 0.00000000E+00 0.00000000E+00
17 15 0.00000000E+00 0.00000000E+00 0.00000000E+00 0.00000000E+00 8.45967127E-02
17 16 0.00000000E+00 0.00000000E+00-8.20652915E-02 0.00000000E+00 0.00000000E+00
17 17-2.80808772E-01 0.00000000E+00 0.00000000E+00 0.00000000E+00 0.00000000E+00
17 18 0.00000000E+00 0.00000000E+00-2.10492279E-02 0.00000000E+00 0.00000000E+00
17 19 0.00000000E+00 0.00000000E+00 0.00000000E+00-3.98845478E-02 0.00000000E+00
17 20 2.77259166E-03 0.00000000E+00 0.00000000E+00 0.00000000E+00 0.00000000E+00
17 21 1.23990599E-03 0.00000000E+00-4.95972805E-03 0.00000000E+00 0.00000000E+00
18  1-1.44055589E-02-1.27072445E-01-9.97562224E-02 3.51339548E-02 0.00000000E+00
18  2 0.00000000E+00 9.68183390E-02 0.00000000E+00 0.00000000E+00-5.96119449E-02
18  3 0.00000000E+00 0.00000000E+00-4.40867375E-02-4.66079876E-04-4.66079876E-04
18  4 9.32159752E-04 0.00000000E+00 0.00000000E+00 0.00000000E+00-5.53306786E-02
18  5-5.53306786E-02 1.10661357E-01 0.00000000E+00 0.00000000E+00 0.00000000E+00