! 
! THIS FILE IS USED TO GENERATE THE RIGHT 
! LOCALIZED ELECTRONIC AND NUCLEAR ORBITALS
! FOR A NEO-NCI CALCULATION
! 
! 
 $CONTRL SCFTYP=ROHF RUNTYP=ENERGY MAXIT=200
         INTTYP=HONDO ICHARG=0 MULT=2 $END 
 $SYSTEM TIMLIM=3000 MEMORY=60000000  $END 
# $SCF SOSCF=.F. DIIS=.T.  $END 
 $INTGRL SCHWRZ=.F. $END 
 $NEO    NEOSCF=DIAGZN BASNUC=QZSPDD NUNIQN=1 
         IUNIQN(1)=25 EXCH=.T. 
         NUMULT=2  LOCORB=2  
         NTAUXB=1 NAUXNB=1 IAUXNB(1)=26 $END 
 $BASIS  GBASIS=N31 NGAUSS=6 $END 
 $GUESS  GUESS=MOREAD NORB=150 $END 
 $DATA 
 
 C1 
 O 8.0    0.000000     0.000000    -1.200748
 O 8.0    0.000000     0.000000     1.200748
 C 6.0   -1.114666    -0.400558     1.749899
 C 6.0   -1.307180    -0.207036     3.150282
 C 6.0   -2.479880    -0.616856     3.759596
 C 6.0   -3.498257    -1.226627     3.007797
 C 6.0   -3.323431    -1.426760     1.629474
 C 6.0   -2.153726    -1.033298     1.000684
 C 6.0    1.114666    -0.400558    -1.749899
 C 6.0    2.153727    -1.033309    -1.000695
 C 6.0    3.323415    -1.426764    -1.629516
 C 6.0    3.498237    -1.226624    -3.007839
 C 6.0    2.479865    -0.616833    -3.759629
 C 6.0    1.307176    -0.207021    -3.150281
 H 1.0   -0.510170     0.275234     3.707418
 H 1.0   -2.616289    -0.462710     4.826741
 H 1.0   -4.415323    -1.547947     3.492806
 H 1.0   -4.109267    -1.904896     1.050621
 H 1.0   -2.002195    -1.195765    -0.061871
 H 1.0    2.002199    -1.195787     0.061859
 H 1.0    4.109246    -1.904915    -1.050671
 H 1.0    4.415300    -1.547945    -3.492852
 H 1.0    2.616271    -0.462682    -4.826774
 H 1.0    0.510165     0.275257    -3.707408
 H 1.0    0.000000     0.000000    -0.275
 H 1.0    0.000000     0.000000     0.275
 $END 
--- OPEN SHELL ORBITALS --- GENERATED AT Tue Aug 14 21:10:18 2007
                                                                                
E(ROHF)=     -610.2717778460, E(NUC)=  791.3780282100,   27 ITERS
 $VEC   
 1  1-4.74715474E-04-1.69349649E-04 7.77496627E-05-1.57616477E-05-4.99471708E-05
 1  2 1.50580994E-03-6.48587552E-04 2.35606682E-04 3.55481338E-04 9.95923285E-01
 1  3 2.42142807E-02-1.82281368E-03-6.65250115E-04-8.45686081E-04-1.85511387E-02
 1  4 3.08065923E-03 1.07825099E-03 1.98043133E-03 1.47154960E-04 7.55136294E-04
 1  5 6.03072170E-06 2.99657376E-05-6.17659421E-05 1.25652968E-03 5.71755142E-03
 1  6 1.77961492E-03-4.17773990E-03-2.68338540E-05-2.25290169E-04 5.08441149E-05
 1  7 5.01877399E-06-4.92968805E-05 3.78946250E-03-2.61021586E-03-1.40733456E-03
 1  8-1.16929051E-03 7.70917391E-06 5.77770782E-06-9.77136096E-05-2.61743389E-05
 1  9 7.47275934E-05-2.77983303E-03-4.52898707E-04-1.88109917E-05 9.94012654E-04
 1 10-1.36845509E-05-1.26478549E-04-4.60640925E-05-1.49659116E-05 3.17887725E-05
 1 11 1.16387418E-03 8.64831396E-04 3.26864646E-04-3.35941838E-04 1.72597763E-06
 1 12-6.52108397E-05-1.26370461E-04-5.17465869E-05 1.63049934E-05-2.83339609E-03
 1 13-9.86838926E-04-4.18200704E-04 8.89003965E-05 2.83473420E-06-5.03330786E-05
 1 14-3.14340065E-06-2.54811258E-05-7.13435028E-05 1.79446655E-03-2.01414373E-03
 1 15-2.38698253E-04 3.25507258E-03-1.54261718E-05-9.45764346E-05 1.86098126E-05
 1 16 5.64910174E-07 3.80164518E-05 1.64940328E-03-7.06915443E-04 1.18361228E-04
 1 17 1.37400402E-03-3.74465025E-06-1.02672550E-05-8.46531034E-05 7.50160355E-05
 1 18 4.19120431E-05 6.64124221E-04 1.37302154E-03-7.21958055E-04-3.15075606E-04
 1 19 9.04286705E-06 6.64612056E-05 1.37696639E-05-1.70138120E-05-7.06251630E-06
 1 20-1.32938418E-03 6.20874168E-04-9.09162513E-05-4.72520210E-04-4.00041776E-06
 1 21-4.04422575E-05 1.95525641E-05-5.96150757E-06-2.89531430E-06 1.53423179E-04
 1 22-3.62184940E-04 1.45925414E-04-5.91046574E-05 2.36923311E-06 9.14947559E-06
 1 23 7.10483494E-06 3.67679635E-07-1.48280267E-05-5.80024816E-04-2.51886276E-06
 1 24 4.07085643E-05-1.92958924E-04-1.69926660E-06 1.12129783E-05-1.60087816E-05
 1 25-1.11536486E-05 1.96476531E-05 6.45963173E-04 3.58323491E-04-1.94269322E-04
 1 26 2.20964548E-04 1.99757524E-04 8.98948952E-04 7.25172381E-06-7.73621978E-05
 1 27 4.14538861E-05 2.89067330E-04 3.18855285E-05-4.10663959E-05 2.36442174E-04
 1 28 1.48317309E-03 1.14737038E-04-4.87672096E-04 3.10520765E-05 3.23214615E-05
 1 29 2.77270228E-05 1.04517432E-04 6.15107235E-06-1.68697929E-05 2.60142893E-05
 1 30 1.65388570E-04 5.38933769E-05-1.45574741E-02 5.99497754E-04 1.76173413E-02
 2  1 9.95850120E-01 2.44182254E-02 1.62846685E-03-5.99076920E-04 1.32389591E-03
 2  2-1.85157397E-02-2.71487989E-03 9.28761609E-04-2.35080431E-03 4.83486817E-04
 2  3-1.02103767E-04-6.65275366E-05-8.91988230E-06 8.64609104E-05 1.10291219E-03
 2  4 5.73418073E-04 2.02583204E-04-1.86745313E-04-1.60962307E-05-8.52737677E-05
 2  5-3.76487713E-06 7.23996046E-06-4.34935158E-05 1.62552288E-03 4.42075625E-04
 2  6-1.26973730E-06-1.37576663E-03-1.15935189E-06 1.17291511E-05 1.47827931E-05
 2  7-1.08442599E-05-1.94852370E-05 6.16281925E-04-2.47765359E-04-1.48426221E-04
 2  8-2.30078870E-04 2.08865336E-06 1.07321944E-05-4.67924497E-06 8.40789767E-07
 2  9 1.18589255E-05-4.90427456E-04 3.28376016E-05 5.08987085E-05 1.66120617E-04
 2 10-3.35234075E-06-3.66623367E-05-1.89726857E-05-5.38419824E-06 4.82512923E-06
 2 11 7.77513253E-05 3.35937936E-04 1.40572832E-04 9.95852348E-05 8.49657188E-06
 2 12 6.30336108E-05-1.18710608E-05-1.71469277E-05 4.53745948E-06-1.25205689E-03
 2 13-5.85492466E-04-5.78068645E-05 5.46282584E-04-1.87267973E-06 2.24866224E-06
 2 14 8.64281833E-05 7.82314560E-05-3.46850599E-05 5.03629329E-04-1.43427353E-03
 2 15-7.90078298E-04 1.47125150E-04 1.36973256E-04 7.37253522E-04-3.00918893E-05
 2 16 3.58068751E-05 7.52688169E-05 9.51871786E-04-4.98281577E-03 1.53347288E-03
 2 17 3.69381813E-03 5.73839433E-06-2.97124441E-05 4.19625887E-06-2.35505373E-05
 2 18 6.22623055E-05 1.51983600E-03 1.87656860E-03-2.52749364E-04-2.88323621E-03
 2 19 1.01059239E-06-6.19005703E-05 1.13678088E-04-4.59997493E-05-1.37344884E-05
 2 20-2.54253997E-03 8.77177817E-04-3.65205010E-04-1.11529924E-04-1.19760025E-05
 2 21-1.11120253E-04 4.11201917E-05-1.29199384E-05-2.98299461E-05 1.01163783E-03
 2 22-7.64172770E-04 2.89875389E-04 2.94349678E-04 6.77537331E-06 9.83575037E-06
 2 23 8.58282196E-05-2.26750345E-05-6.51426183E-05-2.49961954E-03 4.19679372E-04
 2 24-2.35656690E-05-8.89817568E-04-2.22219776E-05-2.03371911E-04-4.59512931E-05
 2 25 3.83153402E-06 4.39331672E-05 3.41103966E-03 2.33487958E-03-1.25276715E-03
 2 26 1.01916788E-03 1.90955159E-05 1.23839660E-04 4.92315970E-06-1.50194861E-05
 2 27 2.70907114E-05 9.46592915E-05 3.59181341E-05 5.74897138E-05 1.14388067E-04
 2 28-6.04407818E-04 2.14963095E-04 1.30251953E-03 3.09924685E-05-2.79177274E-05
 2 29 3.75875362E-05 2.55637098E-04 6.19578347E-06-7.02127301E-05 1.81191471E-04
 2 30 7.79276088E-04 2.64708716E-04 1.84814726E-02 4.69033332E-04-1.40808710E-02
 3  1-4.95708317E-06-3.82119045E-05 2.47720905E-05-1.20831081E-05 9.61509754E-06
 3  2 6.12543745E-04-1.47455922E-04 7.78426333E-05 1.96983424E-04-1.39327714E-04
 3  3 8.27600710E-04-3.86489548E-05 6.06064136E-06 1.11160235E-05-3.86364001E-03
 3  4 1.17716049E-03 3.44902100E-04-2.47982143E-04 9.96364792E-01 2.50665963E-02
 3  5 7.57659430E-04 2.49032361E-04-5.12558093E-04-2.11276318E-02 7.78441263E-03
 3  6 2.89089279E-03-3.47866959E-03 3.80650993E-03-1.10570361E-03 5.47014344E-05
 3  7 6.40011855E-05 2.01724531E-04 1.11230873E-02-4.25974090E-03-2.84390357E-03
 3  8-4.41339044E-03 7.87444140E-05 2.20142460E-04-1.54187084E-04-5.53704094E-05
 3  9 8.21267270E-05-6.54079363E-03-7.24526893E-04 3.80180527E-04 3.49307519E-03
 3 10-3.30915544E-05-3.87918095E-04-5.47056020E-05-2.10244919E-05 2.86020832E-05
 3 11 5.20263002E-03 2.76790733E-03 9.39281469E-04-1.56037944E-03 9.86037093E-05
 3 12 2.08691196E-04-1.58301592E-04-5.24875867E-05 8.70198777E-05-6.40913998E-03
 3 13-2.65355558E-03-1.58048497E-03-1.91335181E-03 3.86081237E-03-1.10143624E-03
 3 14-1.07912705E-04-9.51931225E-05-1.97725343E-04 1.14664724E-02 5.93214502E-04
 3 15 1.73403403E-03 6.85542174E-03-6.88846884E-06-6.55290472E-05-1.55260943E-05
 3 16 1.53180169E-06 3.58975015E-05 8.53124428E-04 5.66897562E-05-3.07776885E-05
 3 17 1.43504498E-04-2.42999793E-06-2.75725725E-05-3.95016722E-05 4.17316847E-05
 3 18 1.36700360E-05 2.86687744E-04 4.77731460E-04-3.18290712E-04 1.09590967E-04
 3 19 5.71633162E-06 4.32116043E-05-8.10652950E-06-3.76000032E-06-1.10306320E-06
 3 20-3.91075060E-04 2.37790236E-04-9.58397924E-06-2.52691092E-04-8.25949458E-07
 3 21-7.30259250E-06 1.03770889E-05-4.57651898E-06 4.18865050E-06-1.16375809E-04
 3 22-7.81912904E-05 3.57532000E-05-8.44262884E-05-2.15603088E-06-1.47217144E-05
 3 23-7.28003249E-06 4.01738905E-06-4.75929794E-06 8.60534365E-05-6.33798037E-05
 3 24 1.04938439E-05 1.12979341E-04 6.75851035E-06 4.41166881E-05 9.51473297E-06
 3 25-8.80493561E-06 3.29065595E-06-2.69761790E-04-1.21840615E-04 8.09970712E-05
 3 26-1.10822974E-04 1.64161584E-04 1.79008758E-03-8.57404351E-05-6.52607939E-04
 3 27 1.05250589E-04 8.52067025E-04-9.54613393E-05-6.84743797E-04 1.25805159E-04
 3 28 2.03514447E-03 5.34518259E-05-3.54290695E-04 1.28909512E-05 1.87847272E-05
 3 29 1.02471785E-05 2.35943935E-05 8.93685840E-06 3.84403664E-05-6.58626403E-06
 3 30-4.67332108E-05-1.88878716E-04-3.70104955E-03 2.23170355E-04 3.91969796E-03
 4  1-2.44874432E-06-3.36326471E-05 1.03356529E-05-9.74358628E-06-1.83186518E-06
 4  2 2.59593950E-04-1.18618452E-04 5.58294812E-05 1.29221499E-04-4.79616394E-06
 4  3-7.97200820E-05 2.47161922E-05 1.01197149E-05-2.83931839E-05 5.72713326E-04
 4  4-3.31388520E-04-1.22960328E-04 3.67681078E-04-7.37339383E-05-3.61863005E-04
 4  5 4.47834765E-05 1.62358516E-05-3.35734634E-05 3.16094991E-03-2.46773569E-03
 4  6-8.79569492E-04 1.32224528E-03 1.10901324E-03 1.18304236E-04 1.01861147E-04
 4  7 3.36038598E-05-5.81557498E-05-4.38425164E-03 1.99627277E-03 1.15820478E-03
 4  8 1.20112676E-03 1.88959183E-02-7.00239072E-04 2.05895282E-04 1.34013486E-04
 4  9 2.01841842E-04 9.87606289E-03-9.40747434E-04-1.40030446E-03-4.84592894E-03
 4 10 9.95869999E-01 2.49526409E-02 5.45955337E-04 1.78767563E-04-3.29053134E-04
 4 11-2.18135803E-02-5.25011396E-03-1.79632349E-03 2.79574025E-03 2.53832519E-02
 4 12-5.44406186E-04 9.91977659E-06-6.02151346E-05-3.18902496E-04 9.75555668E-03
 4 13 2.47719959E-03 1.91796236E-03 3.97272272E-03 1.21497724E-03 1.20256956E-04
 4 14 1.03610576E-04 3.28699895E-05-5.91288007E-05-4.33491318E-03 4.77998040E-04
 4 15-2.94635262E-04-2.42864425E-03-3.25200145E-06-9.59569550E-06 6.94829256E-06
 4 16 1.29016361E-07-5.44116727E-06 1.21241552E-04-2.37702944E-04 5.90149320E-05
 4 17 2.49846841E-04-6.04458440E-07-6.11253388E-06-6.06171805E-06 5.76660636E-06
 4 18 9.49280420E-06 1.34297653E-04 1.40237860E-04-4.28947132E-05-1.62995693E-04
 4 19 1.47028009E-06 8.22245003E-06 3.03347391E-06-2.47368932E-06-1.72208108E-06
 4 20-2.13632367E-04 9.83576571E-05-3.47976159E-05-4.47367917E-06-1.37961153E-06
 4 21-8.38465395E-06 2.22427574E-06-1.07950180E-06-2.82014366E-07 9.00851085E-05
 4 22-7.09165966E-05 2.53543378E-05 2.01220723E-05 7.46004632E-07 3.61110785E-06
 4 23 2.78586557E-06-7.78850541E-07-2.81027161E-06-1.52171601E-04 1.52468989E-05
 4 24 5.99740471E-06-6.55708688E-05-9.94047010E-07-6.57611690E-06-3.38128935E-06
 4 25-3.36909583E-07 3.94546473E-06 1.98324745E-04 1.13599549E-04-6.19725226E-05
 4 26 6.88379136E-05-7.98184012E-05-4.58233039E-04 2.05681630E-05 1.07806532E-03
 4 27-4.28401623E-04 7.58773350E-04 1.26049339E-05 1.06025536E-03-8.01873143E-05
 4 28-3.70959770E-04 1.15309700E-05 4.07351905E-05 5.35044627E-07-1.41879037E-05
 4 29 3.81858304E-06 2.15755082E-05-3.74564319E-07-1.01549948E-05 7.04302798E-06
 4 30 4.70648277E-05-1.61579256E-05-2.09070838E-03 3.55324770E-06 2.27550590E-03
 5  1 1.85835074E-06 3.27840864E-05-1.57816676E-06 5.90066642E-07 4.92230129E-06
 5  2 7.42908958E-06 5.94014479E-05-5.89412736E-06-1.00059198E-04-1.56530432E-06
 5  3-6.47570728E-05 3.07433748E-05 1.96351175E-05-3.99331429E-05 1.19208408E-04
 5  4-1.52728238E-04-6.64698001E-05 3.66362051E-04-3.09043210E-03-8.22352157E-04
 5  5 2.22042337E-04 1.37276474E-04 1.38264817E-04 3.91525912E-03-2.12118578E-03
 5  6-1.08158971E-03-5.75332787E-04-4.34141180E-02-1.25495610E-03 5.26485297E-05
 5  7 5.79671084E-05 1.63057901E-04 3.00472439E-04-9.19664560E-05-8.12433918E-05
 5  8-1.69429257E-04-6.30558089E-03-2.52133375E-04 5.55429542E-05 4.55658723E-05
 5  9 9.61344793E-05-6.08709894E-04 3.48568899E-05 3.27049307E-05 7.46866702E-05
 5 10-1.72056369E-02-1.06427772E-03-6.71959084E-05 2.74103966E-05 2.75561050E-04
 5 11 3.51499593E-03 8.34756033E-04 5.90766731E-05-1.50953311E-03 6.35686952E-01
 5 12 1.53175867E-02 1.67864368E-04 1.40265831E-04 3.45486264E-04-6.69036153E-03
 5 13 3.70291014E-04-7.64966493E-05-1.31842667E-03 7.65306377E-01 1.87176947E-02
 5 14 2.79655876E-04 2.39722541E-04 4.71030714E-04-9.86565868E-03-1.14795311E-03
 5 15-8.52705736E-04-1.44588390E-03 1.64772806E-05-9.95365580E-06-1.86637877E-05
 5 16-4.20445505E-07 2.86400028E-05 2.64897141E-04 2.73581948E-04-8.26023040E-05
 5 17-1.84516282E-04 3.29817197E-06 1.54953659E-05-1.03271076E-05 7.86679504E-06
 5 18 6.47822789E-06-1.09371809E-04 8.08705070E-05-8.29725670E-05 1.39765787E-04
 5 19 1.27321442E-06 7.65203407E-06-5.57165376E-06 1.26286682E-06-3.76828023E-07
 5 20 4.52674903E-05 8.31866748E-06 2.11002096E-05-7.66845120E-05 1.44709163E-06
 5 21 8.33709217E-06 5.30240882E-07-9.26022542E-07 3.71757251E-06-1.35347369E-04
 5 22 5.01756795E-05-1.56983407E-05-5.16751551E-05-1.67831124E-06-9.60412429E-06
 5 23-6.37324447E-06 2.48530850E-06 1.89643108E-06 2.07907530E-04-4.06991299E-05
 5 24-5.16440659E-06 1.20001614E-04 4.99531883E-06 2.88173343E-05 8.09249849E-06
 5 25-4.07535798E-06-1.62028285E-06-3.26071859E-04-1.78556992E-04 1.07978786E-04
 5 26-1.26380860E-04 4.20138810E-05 1.66262783E-04 3.26237155E-05 1.47584152E-04
 5 27-1.62319655E-05 3.37963037E-04-1.95617202E-04 1.21865275E-03-2.65401129E-04
 5 28 1.30563549E-03 4.58206198E-07-1.00340075E-04 3.24025617E-06 7.74669594E-06
 5 29-6.53787426E-07-1.73465630E-05 4.27401302E-06 2.65038641E-05-1.08867726E-05
 5 30-7.55579366E-05-3.01969650E-05-4.13216981E-04-3.12301329E-05 1.05796577E-03
 6  1 2.10784850E-06 3.35251087E-05 1.07398779E-05 1.40404002E-05 1.61271078E-06
 6  2-1.39585709E-04-1.63607650E-05-5.64885951E-05-4.88055374E-05-3.08479322E-06
 6  3-7.46245868E-05 1.93109678E-05 1.39819592E-05-3.05606740E-05 3.82458656E-04
 6  4-1.30634409E-04-9.89496522E-05 1.14241021E-04-4.28110591E-03-1.28949168E-03
 6  5 6.65299558E-05-3.00876689E-05-3.13723667E-04 9.29349074E-03-2.76730880E-03
 6  6-4.93046452E-04 3.83833228E-03 9.91545572E-01 2.50561249E-02-4.27497393E-04
 6  7-3.41227275E-04-6.96946640E-04-2.09330642E-02 3.90943383E-03 2.50300479E-03
 6  8 3.60270436E-03 8.56225842E-02 1.00309367E-03-1.66762114E-04-5.03658447E-05
 6  9 1.22503020E-04 8.14613893E-03 2.05429101E-03 5.85463577E-05-4.32873189E-03
 6 10-3.61022933E-03-1.11052535E-04-1.28895563E-04-7.42834990E-05-8.37100976E-05
 6 11-3.20328333E-03-1.58725950E-03-5.65459398E-04 7.54228290E-04 3.20532419E-02
 6 12 5.07654702E-04-5.07384957E-05-2.93227277E-05-1.95552395E-05 2.43052733E-03
 6 13 1.37479277E-03 8.19735738E-04 9.36076935E-04 3.01810682E-02 7.18532070E-04
 6 14-6.88835828E-05-4.22253384E-05-7.98365107E-05-3.39196027E-03 2.08209737E-04
 6 15-2.90665958E-04-1.70599197E-03 2.07633365E-05 1.88507085E-05-1.04513923E-05
 6 16 6.12683459E-06 2.92275437E-05 9.47813876E-05 6.88640405E-05 2.52740506E-05
 6 17-2.35871963E-04 2.12480471E-06 9.26277180E-06-6.91613030E-06 8.26415590E-06
 6 18 9.32824770E-06 4.56832812E-05-1.19060086E-06-2.13430182E-05-1.68488743E-05
 6 19 1.38608147E-06 8.36312496E-06-2.75939269E-06-1.00523003E-07-2.78226125E-06
 6 20-2.54269116E-05 3.13390049E-05-2.56501101E-06 9.17221196E-06 6.21309768E-07
 6 21 4.16393908E-06 3.85180451E-07-4.81100138E-07 3.90318947E-06-4.32950575E-05
 6 22 2.14004624E-05-1.37344814E-05 2.37688168E-07-7.32046270E-07-5.12422903E-06
 6 23-3.73505454E-06 2.02676372E-06 2.02602441E-08 7.74105468E-05 7.80806712E-06
 6 24-1.71692405E-05 6.43134157E-05 3.08119287E-06 2.08846269E-05 3.13924197E-06
 6 25-3.85221274E-06-1.31164091E-06-2.41380999E-04-4.41907278E-05 4.99444814E-05
 6 26-1.31767407E-04-3.48285027E-04 8.31894995E-04 1.88070290E-05 1.17725389E-03
 6 27-3.78029521E-05-2.71368361E-04 6.02363535E-05 5.97259654E-04-2.13209529E-05
 6 28-2.17233723E-04-3.74642741E-06 1.07027461E-06-1.29363341E-06-1.40272389E-05
 6 29-4.14010369E-10-6.87143083E-06 3.91011214E-06 1.54409724E-05-1.30480553E-06
 6 30-3.53626406E-05-4.13050795E-05 1.63575582E-04 4.03055721E-05 4.59448103E-04
 7  1 6.39009132E-07 8.82340266E-07 1.47472154E-05 1.72379736E-05-1.17069689E-05
 7  2-1.69838203E-04-5.91889669E-05-6.43178895E-05 4.01343119E-05-5.07815173E-06
 7  3-3.47018867E-05-8.77636115E-07 6.69764734E-06 3.86300288E-05-5.00154279E-05
 7  4-1.95904397E-04-1.50547475E-04-4.33322727E-04 2.68506039E-03 8.62512811E-04
 7  5-8.76129131E-05-5.88274963E-05-6.08186953E-05-9.17641999E-03 4.37128693E-03
 7  6 2.09766769E-03 3.81922678E-04-5.27559661E-03-3.33800620E-04 4.39462498E-05
 7  7 9.13089037E-06-4.48889724E-05 4.23423708E-03-2.33928796E-03-1.25741111E-03
 7  8-9.59892998E-04-2.38822529E-03 2.09715232E-04 1.04592962E-04 4.86158205E-05
 7  9 1.81134171E-05-5.50296277E-03-5.14341625E-04 3.66311300E-04 2.97623406E-03
 7 10-1.90125959E-02-1.42078463E-03-7.68147996E-05-1.71014244E-05 9.60750820E-05
 7 11 1.06009952E-02 3.88081995E-03 9.94652194E-04-3.78180929E-03 7.65980258E-01
 7 12 2.02645905E-02 5.55740769E-04 3.19496109E-04 3.73924772E-04-2.34001626E-02
 7 13-6.45473508E-03-3.63964176E-03-3.67831414E-03-6.37089192E-01-1.71338202E-02
 7 14 1.13197653E-05-1.32403806E-04-6.11015553E-04 2.22673477E-02-1.58961193E-03
 7 15 8.66804002E-04 7.43089583E-03 4.41132105E-06 2.63328276E-05-2.22583463E-06
 7 16 2.65083378E-06 2.99164569E-06-9.76907948E-05-8.33209016E-05 8.46338312E-05
 7 17-1.04273717E-04-1.51425204E-06-8.37591240E-06-7.63078196E-07-1.45777943E-06
 7 18-3.82032425E-06 1.18625200E-04-6.88515591E-05 3.94796573E-05-4.43012740E-05
 7 19 2.10877422E-08 6.77175265E-07 1.52773682E-06 4.78273624E-07-3.62197165E-07
 7 20-1.11851097E-05-5.40430832E-07-9.02915765E-06 3.34306984E-05-1.42822227E-07
 7 21-1.39973278E-06 5.13524510E-07 2.49609403E-07 1.55665639E-07 2.47089888E-05
 7 22-5.94240848E-06-1.54836916E-06 2.08704362E-05 4.13761746E-08 2.86682002E-07
 7 23 9.27945301E-07 3.91559799E-07-1.13601095E-06-4.23730192E-05 2.30445492E-05
 7 24-7.45964345E-06-1.00665069E-05-5.82830241E-07-2.91039800E-06-8.30395687E-07
 7 25 3.52530704E-07-2.16152456E-06-2.10468422E-05 5.32174560E-05-2.63031760E-05
 7 26-3.09099551E-05 9.26294249E-05 5.62620114E-04-5.52623213E-05-5.91778402E-04
 7 27 4.54045543E-05 1.00277529E-03-3.03288349E-04-1.84153062E-04 2.37367873E-04
 7 28 1.04594137E-04-2.58562501E-06 2.27978594E-05-1.79919761E-06-5.22098864E-06
 7 29 2.33016780E-07 3.53133745E-06 5.36017812E-07-8.52745891E-07 4.80183589E-06
 7 30 1.27981744E-05 4.19724529E-06 9.79983246E-04-8.93422150E-05-1.13372033E-03
 8  1-7.05382073E-07-5.94516139E-06-5.78633389E-06-3.78971731E-06 4.70072142E-06
 8  2 7.94806068E-05 2.32855178E-05 1.61051776E-05-1.96867320E-05-2.12583846E-06
 8  3-2.74758366E-05 2.05930131E-06-4.44832391E-06-4.20262236E-05-1.23002811E-04
 8  4-1.00661188E-04 2.39861187E-05 4.72474739E-04 3.34991583E-04 2.12773536E-04
 8  5 2.45508986E-05-9.78860446E-07-7.07919480E-05-5.18523440E-03 1.39573583E-03
 8  6 2.04853079E-04-2.16299239E-03-8.63727730E-02-3.37895939E-03 2.68040772E-04
 8  7 1.25854538E-04 1.51051076E-05 1.26120435E-02-4.68673037E-03-2.49836980E-03
 8  8-1.83487469E-03 9.92338400E-01 2.54233862E-02 3.98031891E-05-1.41511881E-04
 8  9-8.29201849E-04-2.28598561E-02-8.21277202E-04 9.99828436E-04 6.89933522E-03
 8 10-1.92043615E-02-1.61437985E-03-2.09367747E-04-1.07094680E-04-5.56749929E-05
 8 11 1.05571410E-02 4.93304642E-03 2.11732939E-03-5.57467138E-04 2.67285127E-03
 8 12 1.95364962E-04 2.91090266E-05-1.54109955E-05-1.44952144E-04-4.68376621E-03
 8 13-1.78490934E-03-1.05761566E-03-1.24086538E-03 6.46015226E-04-2.36690712E-04
 8 14 1.20095515E-05-1.05308382E-05-7.56649918E-05 2.97528922E-03-7.40500437E-04
 8 15 1.26186929E-04 2.16550794E-03-9.94229806E-06-1.00414540E-05 1.95583695E-06
 8 16-3.63055902E-06-7.78528384E-06 2.01212613E-05 5.07184427E-05-3.73090148E-05
 8 17 7.83514385E-05 2.20471427E-07 2.79786877E-06 8.36373573E-07-2.20281829E-06
 8 18-4.47718315E-06-6.90704772E-05 2.86941613E-05-1.97605702E-05 6.02544615E-05
 8 19-7.96126400E-07-4.27662477E-06 8.25604550E-07 1.42188343E-07 1.26260678E-06
 8 20 3.24575074E-05-2.17048382E-05 1.24019367E-05-3.12809551E-05 1.05910705E-07
 8 21 2.98495831E-07-3.13599886E-07 3.53640806E-07-1.46935748E-06-1.67510199E-05
 8 22 5.06251507E-06 1.91524618E-06-1.62203700E-05 6.87261819E-08 6.85475144E-07
 8 23 6.72925386E-07-5.04895009E-07 7.84855341E-07 1.53425100E-05-1.59099101E-05
 8 24 8.76142516E-06-5.58686343E-06-8.74348187E-07-5.07394270E-06-9.28065436E-08
 8 25 9.43531314E-07-4.84833257E-07 4.59683337E-05-2.49188383E-05 6.50626029E-07
 8 26 4.21521428E-05 2.78700160E-05 9.15104925E-04-3.61409637E-04 5.29923435E-04
 8 27 2.12427606E-05 1.00811568E-03-2.71897042E-05-3.62194934E-04 8.93259873E-05
 8 28 6.22382511E-04 1.23529697E-06-4.16686305E-05 2.14615289E-06 1.37658007E-05
 8 29-4.63284981E-07-2.35596020E-06-1.29244492E-06-2.70813672E-06-2.15967341E-06
 8 30 2.03246997E-07-1.30899845E-05-4.15047818E-04 6.55899329E-05 5.09653709E-04
 9  1-1.11860886E-04 9.14532852E-04 4.99589225E-05 8.62357593E-06-5.35674958E-06
 9  2-4.36070561E-03-1.25860111E-03 3.62682417E-04 1.48576585E-04-6.24178623E-06
 9  3-4.36043825E-05-3.20304377E-05-7.23575822E-06-1.11861516E-05 6.30855581E-04
 9  4 1.60879665E-04 6.55852147E-05-2.41532280E-04-1.36898850E-05-6.86946955E-05
 9  5 1.80859945E-05 4.31277354E-06-4.31348558E-05 9.45382134E-04-8.63674469E-05
 9  6-3.09938647E-05-1.05058607E-04-1.48940421E-05 5.19356460E-05-1.08276579E-05
 9  7-1.08944419E-05-3.68041194E-06-3.46515447E-04 1.49825033E-04 9.96618828E-05
 9  8 1.43575110E-04 5.69366213E-06-1.74707653E-05 8.66323477E-06 4.43206518E-06
 9  9 5.55529694E-06 1.12472716E-04 7.26969393E-05 1.07848312E-05-1.36962985E-04
 9 10 2.11888104E-06-7.83922836E-06-1.18755287E-05-5.07670160E-06-5.55678404E-06
 9 11-1.37262563E-04 8.55743588E-05 3.81309071E-05 9.55200527E-05-9.33795699E-06
 9 12 4.95518707E-05 9.10829199E-06-4.21257624E-06 2.16710667E-06-4.41175661E-04
 9 13-2.70052055E-04-7.65978525E-06 2.85539528E-04-1.91756272E-05-3.15932184E-05
 9 14 4.59775312E-05 4.94227316E-05-1.71472179E-05 3.49915829E-04-5.30141937E-04
 9 15-3.64846012E-04-1.38423436E-04 9.96195210E-01 2.53241076E-02-1.19852414E-03
 9 16 3.95791593E-04 8.15891998E-04-2.03175673E-02-7.15872430E-03 2.67824355E-03
 9 17 3.10621265E-03 5.91488285E-03-9.82843271E-04 6.04675212E-05-6.57134554E-05
 9 18 1.51847596E-04 1.10589926E-02-6.64466550E-04 1.71060300E-03-6.59839929E-03
 9 19 2.51965498E-05 2.15279518E-04 1.58976566E-04-5.35401321E-05-8.84776484E-05
 9 20-6.25576073E-03 2.64141547E-03-1.58614950E-03 1.96053354E-03-1.68605947E-04
 9 21-3.83792274E-04 5.07124249E-05-1.98481597E-05-2.86034128E-05 5.20615650E-03
 9 22-2.73381512E-03 9.28092992E-04 1.53662634E-03 3.69003176E-05 2.34539236E-04
 9 23 1.56945557E-04-5.67805444E-05-7.98609074E-05-6.42987028E-03 6.88920859E-04
 9 24 4.10007915E-04-3.56010623E-03 5.33539173E-03-9.97172823E-04-5.92032612E-05
 9 25 5.24004891E-05-1.17182603E-04 1.07392247E-02 4.08773243E-03-2.74811810E-03
 9 26 4.33291115E-03-7.72681237E-06-6.00318593E-05 1.05730821E-05 4.56696154E-05
 9 27 1.13552611E-05 2.57115348E-05 1.42233604E-05 2.15611049E-05 6.08974684E-05
 9 28-4.21797645E-04 1.05856735E-04 1.95726733E-03-9.42945493E-05-7.12375331E-04
 9 29 1.03093071E-04 8.29695546E-04-8.77028782E-05-6.98424806E-04 1.48854317E-04
 9 30 1.73784220E-03 3.14726591E-04 4.87690655E-03-2.15119549E-04-4.23863700E-03
10  1 5.63695658E-06-2.74603270E-05-3.42081003E-05 1.79304572E-05 5.26519534E-05
10  2 4.35931456E-05-4.34602160E-06 4.09912831E-05-5.57788311E-04 1.15642144E-06
10  3 2.83939011E-05 1.41234625E-05-1.02348725E-05-1.22215069E-05 1.03324803E-04
10  4-1.24460987E-04 3.01056677E-05 1.22078895E-04-5.99591880E-06-2.72092129E-05
10  5 1.67829888E-05-2.35367073E-06-2.41102708E-05 2.85770335E-04-3.60824840E-04
10  6-1.46278771E-04 1.57482566E-04 2.10393945E-06 2.99252574E-05-9.06700209E-06
10  7-4.09681990E-06 1.14585058E-06-3.36771401E-04 2.31344920E-04 1.32900995E-04
10  8 1.09164251E-04-1.47448959E-06-1.07548968E-05 6.99481655E-06 2.10176910E-06
10  9-3.05411216E-06 2.63635674E-04 5.90034206E-05-5.23425473E-07-1.36015514E-04
10 10 7.71921010E-07 1.05712015E-05 2.87487685E-07-6.36777737E-07-3.34409015E-06
10 11-1.64875728E-04-6.97328488E-05-2.04358624E-05 6.71439112E-05-8.65077316E-07
10 12 3.85956125E-06 6.94134699E-06 1.39865656E-06-2.35714367E-07 1.09790708E-04
10 13 2.09499154E-05 3.64888246E-05 9.10682829E-05 6.41203847E-07 2.05709295E-05
10 14 6.71215790E-06 6.68987942E-06-5.96461555E-06-2.14397178E-04-7.95299695E-05
10 15-9.11139173E-05-2.03277284E-04-6.29459730E-03-1.20828345E-03-2.01510065E-04
10 16 1.22042845E-04-1.15895370E-04 8.50609293E-03 4.20141798E-03-2.06971750E-03
10 17 6.87074248E-04 9.92632707E-01 2.51457835E-02-1.75195433E-04 1.67350643E-04
10 18-3.02068435E-04-2.06199050E-02 3.45008882E-05-1.06083897E-03 4.76862350E-03
10 19 8.35329192E-02 1.00710063E-03 1.66971627E-04-6.95028058E-05-3.91640336E-05
10 20 7.58877134E-03-3.86102289E-03 1.92290445E-03-8.48782237E-04 2.05404531E-03
10 21 7.99299437E-05 9.23844189E-06 2.92350336E-05-1.50962297E-04-3.16682763E-03
10 22 1.58512696E-03-5.52243989E-04-8.74851210E-04-1.04732512E-03-2.85315073E-04
10 23 1.23874634E-05 9.66068903E-06-6.47863637E-05 2.93762923E-03-3.70992138E-04
10 24-1.80451242E-04 1.73888286E-03-1.19777229E-03-1.99205702E-05 1.39316470E-06
10 25 2.52564016E-05-1.24765922E-04-2.74569593E-03-1.45941471E-03 7.66256107E-04
10 26-5.28117460E-04-1.52542729E-05-8.95033614E-05 3.66570497E-06 2.83827582E-05
10 27-1.91970017E-06-2.41006413E-05 3.97394669E-06 1.54326986E-05-1.57361298E-06
10 28-1.22146640E-04-3.79768067E-04 1.40480479E-03-7.28534396E-06 1.04691689E-03
10 29-4.43618244E-05-3.05537006E-04 5.46470292E-05 4.73525238E-04-3.77427075E-05
10 30-2.11994285E-04 3.77200993E-05 1.39184837E-03-2.88910781E-05-6.87063051E-04
11  1-6.78595886E-06-7.28985375E-05-1.53931847E-05 1.50745774E-05-1.08585757E-06
11  2 1.08304149E-04 2.67015605E-04-1.63639582E-04 9.22869889E-05 1.48785928E-06
11  3 1.77269292E-05-1.30993677E-05 1.44591504E-05 7.03888757E-06-1.23397780E-04
11  4 3.29515589E-05-5.36825469E-05 1.46212212E-05-6.92739668E-07 1.64827265E-05
11  5 1.12954845E-05 2.14973021E-06-1.82458433E-05 7.38313554E-05-4.96834158E-05
11  6 3.45797472E-05 1.61216226E-04 1.24568369E-06 1.25459732E-05-3.14833904E-06
11  7-1.99001101E-06 2.17700060E-06-1.71225325E-04 3.62973999E-05 2.85776076E-05
11  8 8.83734081E-05-2.32510326E-07-4.24507279E-06 2.38251850E-06 1.63152511E-06
11  9 2.23572250E-07 5.61735075E-05-4.94939366E-07-8.81736649E-06-4.76730127E-05
11 10 2.06655073E-07 2.37852549E-06-9.43384500E-07-4.01152562E-07-2.20198189E-06
11 11-4.02105777E-05-1.30091599E-05-6.73657862E-06 7.08935126E-06 1.12302755E-07
11 12 5.93756838E-06 1.32951238E-06 7.78047628E-07 7.98369181E-07-1.44222559E-05
11 13-1.80801906E-05-1.32617360E-06 1.25893454E-05-7.14644013E-07 1.20072799E-06
11 14 7.17758953E-06 3.83618871E-06-1.81445785E-06 5.76121067E-05-4.27496286E-06
11 15-1.72183330E-05-1.42933500E-05 5.97159046E-04 1.71753290E-04-5.80073409E-05
11 16 3.02172862E-05-1.87304447E-05-4.57470007E-03-1.97539948E-03 9.32490982E-04
11 17-5.44231376E-05-8.40258848E-02-3.28830575E-03-1.96257052E-04 4.88712398E-05
11 18 1.92700427E-04 1.18610002E-02 2.06447107E-03 4.38214643E-05-4.64732254E-03
11 19 9.91715055E-01 2.52443131E-02-4.73516225E-04 2.22254158E-04-1.02457854E-04
11 20-2.19747169E-02 4.63577326E-03-2.64963560E-03 2.90928812E-03 4.35703696E-02
11 21 1.36643894E-06 7.20548750E-05-1.85723286E-06-1.59820975E-04 8.94822019E-03
11 22-3.30567066E-03 7.52803152E-04 3.64652694E-03 4.97830353E-03 2.16984030E-04
11 23-1.24658090E-04 6.88993205E-05-6.92951978E-05-4.16799035E-03 4.09746182E-04
11 24 2.60882160E-04-2.21256729E-03-4.51002660E-03-3.68259115E-04-5.56787858E-05
11 25 3.23098888E-05-3.83852575E-05 2.93664479E-03 1.71806001E-03-9.36272829E-04
11 26 7.55837265E-04-8.40306485E-07-2.44135019E-05 2.73874829E-06 1.20765902E-05
11 27 3.49536567E-07-3.72137291E-06 2.32016283E-07-2.89250391E-06-4.50079866E-07
11 28-2.68218427E-05 1.64033599E-05 6.62516200E-04-3.68592951E-04 9.19970389E-04
11 29 5.28329758E-06 1.06967784E-03-3.88798431E-05-3.56311916E-04 8.32308329E-05
11 30 5.40195105E-04-7.92469479E-05-2.01338231E-04-2.57681611E-05 4.50887938E-04
12  1 1.71681068E-06-8.18763141E-05-1.89739064E-05 1.01004562E-05 3.54156620E-05
12  2 3.01950734E-04 1.25397956E-04-8.92296628E-05-1.53525406E-04 2.55663078E-06
12  3 2.88073868E-05-8.66910764E-06 1.33647648E-05 3.27316875E-06-1.35791274E-04
12  4 1.16352224E-05-5.24978570E-05 5.69139911E-05-1.52404788E-06 1.67779881E-05
12  5 9.79306214E-06 5.61741324E-06-2.62951561E-05 8.23676737E-05-7.09462744E-05
12  6 1.84904337E-05 2.10095153E-04 1.98042660E-06 1.77816798E-05-3.00809979E-06
12  7-3.21004789E-06 2.02664583E-06-2.15557357E-04 4.20196054E-05 4.54450013E-05
12  8 1.15981236E-04-3.91056666E-07-4.25768529E-06 3.54390834E-06 1.87872175E-06
12  9-3.50043857E-07 7.23053401E-05-5.86318575E-06-1.48956239E-05-5.76251557E-05
12 10 2.45944950E-07 3.93925212E-06-1.99586011E-07-4.00030252E-07-3.21652808E-06
12 11-4.21861356E-05-2.11669591E-05-1.28460771E-05 1.51740616E-06 2.22412081E-07
12 12 6.73448894E-06 2.37872576E-06-1.19891936E-07 2.29186811E-06-1.53010965E-05
12 13-2.34294665E-05 2.33664426E-08-5.20486102E-06-7.43186757E-07 8.98623169E-06
12 14 6.17268628E-06 7.41854617E-06-7.22346422E-06 3.25698827E-05 1.48836129E-06
12 15-2.04006526E-05 5.57117446E-06-5.51313109E-03-1.18420432E-03-5.70965999E-05
12 16-2.20606231E-05 2.74722071E-04 7.87985994E-03 2.27937246E-03-3.67849554E-04