! 
! 
! THIS FILE IS USED TO GENERATE THE LEFT
! LOCALIZED ELECTRONIC AND NUCLEAR ORBITALS
! FOR A NEO-NCI CALCULATION
! 
! 
 $CONTRL SCFTYP=ROHF RUNTYP=ENERGY MAXIT=200
         INTTYP=HONDO ICHARG=0 MULT=2 $END 
 $SYSTEM TIMLIM=3000 MEMORY=60000000  $END 
# $SCF SOSCF=.F. DIIS=.T.  $END 
 $INTGRL SCHWRZ=.F. $END 
 $NEO  NEOSCF=DIAGZN BASNUC=QZSPDD NUNIQN=1 
         IUNIQN(1)=25 EXCH=.T. NUMULT=2  LOCORB=1  
         NTAUXB=1 NAUXNB=1 IAUXNB(1)=26 $END 
 $BASIS  GBASIS=N31 NGAUSS=6 $END 
 $GUESS  GUESS=MOREAD NORB=150 $END 
 $DATA 
 
 C1 
 O 8.0    0.000000     0.000000    -1.200748
 O 8.0    0.000000     0.000000     1.200748
 C 6.0   -1.114666    -0.400558     1.749899
 C 6.0   -1.307180    -0.207036     3.150282
 C 6.0   -2.479880    -0.616856     3.759596
 C 6.0   -3.498257    -1.226627     3.007797
 C 6.0   -3.323431    -1.426760     1.629474
 C 6.0   -2.153726    -1.033298     1.000684
 C 6.0    1.114666    -0.400558    -1.749899
 C 6.0    2.153727    -1.033309    -1.000695
 C 6.0    3.323415    -1.426764    -1.629516
 C 6.0    3.498237    -1.226624    -3.007839
 C 6.0    2.479865    -0.616833    -3.759629
 C 6.0    1.307176    -0.207021    -3.150281
 H 1.0   -0.510170     0.275234     3.707418
 H 1.0   -2.616289    -0.462710     4.826741
 H 1.0   -4.415323    -1.547947     3.492806
 H 1.0   -4.109267    -1.904896     1.050621
 H 1.0   -2.002195    -1.195765    -0.061871
 H 1.0    2.002199    -1.195787     0.061859
 H 1.0    4.109246    -1.904915    -1.050671
 H 1.0    4.415300    -1.547945    -3.492852
 H 1.0    2.616271    -0.462682    -4.826774
 H 1.0    0.510165     0.275257    -3.707408
 H 1.0    0.000000     0.000000    -0.275
 H 1.0    0.000000     0.000000     0.275
 $END 
--- OPEN SHELL ORBITALS --- GENERATED AT Tue Aug 14 21:10:03 2007
                                                                                
E(ROHF)=     -610.2717780031, E(NUC)=  791.3780276168,   27 ITERS
 $VEC   
 1  1 9.95923285E-01 2.42142801E-02 1.82281441E-03-6.65250424E-04 8.45684498E-04
 1  2-1.85511511E-02-3.08066038E-03 1.07825162E-03-1.98043521E-03-4.74709323E-04
 1  3-1.69349585E-04-7.77503503E-05-1.57616343E-05 4.99464731E-05 1.50580767E-03
 1  4 6.48597933E-04 2.35609273E-04-3.55482006E-04-1.54262264E-05-9.45774286E-05
 1  5-1.86099216E-05 5.64647459E-07-3.80135783E-05 1.64940324E-03 7.06930298E-04
 1  6 1.18366144E-04-1.37406404E-03-1.69971467E-06 1.12102421E-05 1.60091438E-05
 1  7-1.11528557E-05-1.96491651E-05 6.46021417E-04-3.58333580E-04-1.94277406E-04
 1  8-2.20993839E-04 2.36929589E-06 9.15004240E-06-7.10479501E-06 3.67315004E-07
 1  9 1.48280084E-05-5.80056255E-04 2.51480344E-06 4.07072587E-05 1.92971198E-04
 1 10-4.00095031E-06-4.04464461E-05-1.95531692E-05-5.96204064E-06 2.89405796E-06
 1 11 1.53484843E-04 3.62207795E-04 1.45926979E-04 5.90821837E-05 9.04331273E-06
 1 12 6.64632962E-05-1.37712180E-05-1.70136206E-05 7.06554934E-06-1.32943579E-03
 1 13-6.20902750E-04-9.09386565E-05 4.72460865E-04-3.74454530E-06-1.02654393E-05
 1 14 8.46535996E-05 7.50152662E-05-4.19122547E-05 6.64109802E-04-1.37305507E-03
 1 15-7.21963965E-04 3.15072612E-04 1.47155603E-04 7.55141644E-04-6.03110657E-06
 1 16 2.99663267E-05 6.17679701E-05 1.25649872E-03-5.71755928E-03 1.77960975E-03
 1 17 4.17772849E-03 2.83471957E-06-5.03323637E-05 3.13841956E-06-2.54797048E-05
 1 18 7.13414717E-05 1.79453290E-03 2.01413496E-03-2.38672830E-04-3.25509941E-03
 1 19 1.72494181E-06-6.52191327E-05 1.26370866E-04-5.17475867E-05-1.63053882E-05
 1 20-2.83341350E-03 9.86811451E-04-4.18181191E-04-8.90015164E-05-1.36847578E-05
 1 21-1.26480173E-04 4.60617180E-05-1.49637389E-05-3.17942791E-05 1.16389782E-03
 1 22-8.64854597E-04 3.26890330E-04 3.35920383E-04 7.71097279E-06 5.79149305E-06
 1 23 9.77132104E-05-2.61742887E-05-7.47251781E-05-2.77986373E-03 4.52857512E-04
 1 24-1.87631355E-05-9.94132988E-04-2.68342194E-05-2.25293523E-04-5.08428356E-05
 1 25 5.01847298E-06 4.92917361E-05 3.78945386E-03 2.61022430E-03-1.40736248E-03
 1 26 1.16927384E-03 2.60148977E-05 1.65394417E-04 6.15099411E-06-1.68696509E-05
 1 27 2.77273697E-05 1.04524877E-04 3.10483618E-05 3.23046428E-05 1.14736180E-04
 1 28-4.87671369E-04 2.36444298E-04 1.48316641E-03 3.18937905E-05-4.10276461E-05
 1 29 4.14545714E-05 2.89072106E-04 7.24156920E-06-7.74169208E-05 1.99757943E-04
 1 30 8.98953894E-04 5.99496653E-04 1.76174190E-02 5.38946132E-05-1.45575532E-02
 2  1 4.83480682E-04-1.02103545E-04 6.65269317E-05-8.91984622E-06-8.64615273E-05
 2  2 1.10291293E-03-5.73408240E-04 2.02580829E-04 1.86744329E-04 9.95850120E-01
 2  3 2.44182245E-02-1.62846572E-03-5.99077174E-04-1.32389564E-03-1.85157225E-02
 2  4 2.71487946E-03 9.28762470E-04 2.35079759E-03 1.36972660E-04 7.37248212E-04
 2  5 3.00912581E-05 3.58063072E-05-7.52667088E-05 9.51901443E-04 4.98281170E-03
 2  6 1.53347841E-03-3.69383257E-03-2.22217242E-05-2.03369200E-04 4.59524537E-05
 2  7 3.83188385E-06-4.39376604E-05 3.41105049E-03-2.33487347E-03-1.25274342E-03
 2  8-1.01918507E-03 6.77375531E-06 9.82335915E-06-8.58285626E-05-2.26750278E-05
 2  9 6.51448943E-05-2.49959267E-03-4.19716793E-04-2.36085612E-05 8.89710127E-04
 2 10-1.19758362E-05-1.11118953E-04-4.11223489E-05-1.29218653E-05 2.98251253E-05
 2 11 1.01161753E-03 7.64152046E-04 2.89852389E-04-2.94369817E-04 1.01149961E-06
 2 12-6.18934853E-05-1.13677910E-04-4.59989501E-05 1.37342170E-05-2.54252459E-03
 2 13-8.77201416E-04-3.65222482E-04 1.11438505E-04 5.73841849E-06-2.97130274E-05
 2 14-4.20072531E-06-2.35518066E-05-6.22640267E-05 1.51977435E-03-1.87657651E-03
 2 15-2.52771570E-04 2.88321154E-03-1.60961369E-05-8.52724207E-05 3.76481529E-06
 2 16 7.24025049E-06 4.34963118E-05 1.62552150E-03-4.42063043E-04-1.27494549E-06
 2 17 1.37570712E-03-1.87277509E-06 2.24696319E-06-8.64276366E-05 7.82322823E-05
 2 18 3.46851951E-05 5.03644425E-04 1.43424117E-03-7.90074313E-04-1.47131636E-04
 2 19 8.49616370E-06 6.30318442E-05 1.18693656E-05-1.71471514E-05-4.53419495E-06
 2 20-1.25200384E-03 5.85465101E-04-5.77839309E-05-5.46341703E-04-3.35175715E-06
 2 21-3.66576726E-05 1.89720188E-05-5.38366939E-06-4.82620250E-06 7.76862550E-05
 2 22-3.35913546E-04 1.40570548E-04-9.96088123E-05 2.08856243E-06 1.07314596E-05
 2 23 4.67938717E-06 8.41055655E-07-1.18588830E-05-4.90396184E-04-3.28399429E-05
 2 24 5.08988419E-05-1.66105253E-04-1.15889709E-06 1.17319639E-05-1.47825440E-05
 2 25-1.08450092E-05 1.94839998E-05 6.16226043E-04 2.47756817E-04-1.48418761E-04
 2 26 2.30050857E-04 1.81191129E-04 7.79273137E-04 6.20481946E-06-7.01638811E-05
 2 27 3.75869217E-05 2.55633017E-04 3.09851425E-05-2.79518100E-05 2.14961067E-04
 2 28 1.30252573E-03 1.14389195E-04-6.04406077E-04 3.59217201E-05 5.75052543E-05
 2 29 2.70902982E-05 9.46510847E-05 4.92354175E-06-1.50185416E-05 1.90951088E-05
 2 30 1.23833858E-04 4.69032316E-04-1.40807807E-02 2.64709286E-04 1.84813759E-02
 3  1-1.39327489E-04 8.27602483E-04 3.86501163E-05 6.06067285E-06-1.11136334E-05
 3  2-3.86365090E-03-1.17717182E-03 3.44906885E-04 2.47960573E-04-4.95696312E-06
 3  3-3.82105782E-05-2.47726487E-05-1.20831102E-05-9.61565364E-06 6.12534325E-04
 3  4 1.47461356E-04 7.78436652E-05-1.96977938E-04-6.88844524E-06-6.55288900E-05
 3  5 1.55265704E-05 1.53186192E-06-3.58962609E-05 8.53129439E-04-5.66910620E-05
 3  6-3.07815223E-05-1.43536999E-04 6.75834758E-06 4.41156091E-05-9.51479089E-06
 3  7-8.80465481E-06-3.29085684E-06-2.69735555E-04 1.21839451E-04 8.09909755E-05
 3  8 1.10810885E-04-2.15579201E-06-1.47201455E-05 7.28032902E-06 4.01729322E-06
 3  9 4.75889327E-06 8.60400525E-05 6.33850635E-05 1.05000326E-05-1.12962674E-04
 3 10-8.26233194E-07-7.30447730E-06-1.03772475E-05-4.57650528E-06-4.18888301E-06
 3 11-1.16347208E-04 7.82046094E-05 3.57570908E-05 8.44209661E-05 5.71655631E-06
 3 12 4.32129593E-05 8.10599152E-06-3.75998917E-06 1.10453537E-06-3.91107030E-04
 3 13-2.37806146E-04-9.59301285E-06 2.52678174E-04-2.42993026E-06-2.75723650E-05
 3 14 3.95033637E-05 4.17323316E-05-1.36693487E-05 2.86689089E-04-4.77758443E-04
 3 15-3.18299841E-04-1.09598351E-04 9.96364792E-01 2.50665966E-02-7.57673335E-04
 3 16 2.49044522E-04 5.12522153E-04-2.11276134E-02-7.78435943E-03 2.89084747E-03
 3 17 3.47880799E-03 3.86083319E-03-1.10143260E-03 1.07899948E-04-9.51894994E-05
 3 18 1.97719144E-04 1.14664283E-02-5.93182513E-04 1.73407863E-03-6.85540767E-03
 3 19 9.86078749E-05 2.08678920E-04 1.58301933E-04-5.24865580E-05-8.70232269E-05
 3 20-6.40918462E-03 2.65351102E-03-1.58047404E-03 1.91316909E-03-3.30923659E-05
 3 21-3.87919087E-04 5.47033496E-05-2.10210814E-05-2.86087248E-05 5.20263997E-03
 3 22-2.76791997E-03 9.39325684E-04 1.56034420E-03 7.87408197E-05 2.20158135E-04
 3 23 1.54185306E-04-5.53685065E-05-8.21280626E-05-6.54076264E-03 7.24441146E-04
 3 24 3.80278720E-04-3.49323032E-03 3.80651596E-03-1.10570811E-03-5.46971516E-05
 3 25 6.40033258E-05-2.01738417E-04 1.11231287E-02 4.25970565E-03-2.84395526E-03
 3 26 4.41336925E-03-6.58615953E-06-4.67316288E-05 8.93579624E-06 3.84345611E-05
 3 27 1.02474727E-05 2.35980504E-05 1.28902208E-05 1.87806854E-05 5.34534913E-05
 3 28-3.54301286E-04 1.25808849E-04 2.03515016E-03-9.54460324E-05-6.84665984E-04
 3 29 1.05250911E-04 8.52070061E-04-8.57569803E-05-6.52692302E-04 1.64158239E-04
 3 30 1.79007173E-03 2.23173693E-04 3.91971057E-03-1.88878660E-04-3.70105191E-03
 4  1-4.79626922E-06-7.97214298E-05-2.47158885E-05 1.01192814E-05 2.83932925E-05
 4  2 5.72725869E-04 3.31385060E-04-1.22956640E-04-3.67683725E-04-2.44852869E-06
 4  3-3.36301950E-05-1.03364137E-05-9.74234777E-06 1.83180048E-06 2.59573835E-04
 4  4 1.18619867E-04 5.58251285E-05-1.29216326E-04-3.25148672E-06-9.59391030E-06
 4  5-6.94796892E-06 1.29317394E-07 5.44069582E-06 1.21234720E-04 2.37703308E-04
 4  6 5.90179185E-05-2.49842254E-04-9.94023160E-07-6.57605621E-06 3.38137797E-06
 4  7-3.36870366E-07-3.94570769E-06 1.98325220E-04-1.13600831E-04-6.19719876E-05
 4  8-6.88377085E-05 7.45983643E-07 3.61089293E-06-2.78586887E-06-7.78883719E-07
 4  9 2.81025720E-06-1.52173564E-04-1.52495028E-05 5.99518479E-06 6.55681611E-05
 4 10-1.37960408E-06-8.38468152E-06-2.22430096E-06-1.07956728E-06 2.81677069E-07
 4 11 9.00889381E-05 7.09169987E-05 2.53532086E-05-2.01246402E-05 1.47035430E-06
 4 12 8.22297487E-06-3.03351335E-06-2.47360513E-06 1.72225843E-06-2.13635093E-04
 4 13-9.83609412E-05-3.47999604E-05 4.46450164E-06-6.04378458E-07-6.11205058E-06
 4 14 6.06175507E-06 5.76646707E-06-9.49309306E-06 1.34297933E-04-1.40238008E-04
 4 15-4.28946665E-05 1.62997979E-04-7.37334254E-05-3.61864798E-04-4.47819699E-05
 4 16 1.62358477E-05 3.35771402E-05 3.16095966E-03 2.46775963E-03-8.79593952E-04
 4 17-1.32218604E-03 1.21487860E-03 1.20261507E-04-1.03609853E-04 3.28713268E-05
 4 18 5.91344573E-05-4.33493387E-03-4.77923037E-04-2.94714104E-04 2.42875049E-03
 4 19 2.53827555E-02-5.44416656E-04-9.92357610E-06-6.02173619E-05 3.18912296E-04
 4 20 9.75558909E-03-2.47717795E-03 1.91801204E-03-3.97271819E-03 9.95870007E-01
 4 21 2.49526406E-02-5.45938573E-04 1.78765354E-04 3.29077922E-04-2.18135650E-02
 4 22 5.25004822E-03-1.79635779E-03-2.79581811E-03 1.88960691E-02-7.00234234E-04
 4 23-2.05881664E-04 1.34010797E-04-2.01835705E-04 9.87600266E-03 9.40725323E-04
 4 24-1.40035447E-03 4.84591555E-03 1.10911476E-03 1.18298783E-04-1.01857459E-04
 4 25 3.36037940E-05 5.81599820E-05-4.38422104E-03-1.99624506E-03 1.15818263E-03
 4 26-1.20098569E-03 7.04320507E-06 4.70646385E-05-3.74237474E-07-1.01534436E-05
 4 27 3.81854740E-06 2.15755721E-05 5.34409920E-07-1.41912044E-05 1.15304796E-05
 4 28 4.07385672E-05-8.01954279E-05-3.71020269E-04 1.26036874E-05 1.06024788E-03
 4 29-4.28399993E-04 7.58777905E-04 2.05697974E-05 1.07807671E-03-7.98091074E-05
 4 30-4.58181113E-04 3.55316789E-06 2.27543781E-03-1.61582497E-05-2.09062966E-03
 5  1-1.56533875E-06-6.47519019E-05-3.07417691E-05 1.96348020E-05 3.99220997E-05
 5  2 1.19145698E-04 1.52738378E-04-6.64766021E-05-3.66275552E-04 1.85806391E-06
 5  3 3.27785369E-05 1.57722164E-06 5.90373469E-07-4.92092681E-06 7.42654127E-06
 5  4-5.93910368E-05-5.89387367E-06 1.00045357E-04 1.64747903E-05-9.95246185E-06
 5  5 1.86623220E-05-4.20981057E-07-2.86351622E-05 2.64866991E-04-2.73553802E-04
 5  6-8.25937148E-05 1.84479814E-04 4.99463092E-06 2.88129411E-05-8.09170116E-06
 5  7-4.07457580E-06 1.62040237E-06-3.26023564E-04 1.78538178E-04 1.07961382E-04
 5  8 1.26360885E-04-1.67795517E-06-9.60192624E-06 6.37253798E-06 2.48499084E-06
 5  9-1.89652972E-06 2.07881802E-04 4.06992920E-05-5.15843144E-06-1.19978009E-04
 5 10 1.44692094E-06 8.33591240E-06-5.30108370E-07-9.25699747E-07-3.71677172E-06
 5 11-1.35328103E-04-5.01678001E-05-1.56943585E-05 5.16715642E-05 1.27294693E-06
 5 12 7.65047901E-06 5.57066268E-06 1.26283195E-06 3.76738090E-07 4.52614114E-05
 5 13-8.31580717E-06 2.10980299E-05 7.66817246E-05 3.29764190E-06 1.54930890E-05
 5 14 1.03265833E-05 7.86540010E-06-6.47608375E-06-1.09361818E-04-8.08673558E-05
 5 15-8.29641970E-05-1.39759052E-04-3.08943789E-03-8.22034253E-04-2.22016404E-04
 5 16 1.37271891E-04-1.38292545E-04 3.91250398E-03 2.12010358E-03-1.08120244E-03
 5 17 5.75778005E-04 7.65202960E-01 1.87149344E-02-2.79667605E-04 2.39711746E-04
 5 18-4.70947647E-04-9.86174207E-03 1.14818585E-03-8.52521004E-04 1.44447082E-03
 5 19 6.35801707E-01 1.53206767E-02-1.67961263E-04 1.40320217E-04-3.45542236E-04
 5 20-6.69430164E-03-3.69109020E-04-7.71802440E-05 1.31918328E-03-1.72076978E-02
 5 21-1.06447225E-03 6.71882498E-05 2.74206909E-05-2.75592981E-04 3.51710592E-03
 5 22-8.35559544E-04 5.92965782E-05 1.51024201E-03-6.31744305E-03-2.52220006E-04
 5 23-5.55824307E-05 4.55806083E-05-9.61169889E-05-6.10746242E-04-3.44659074E-05
 5 24 3.27569846E-05-7.57965590E-05-4.35536126E-02-1.25852009E-03-5.27169215E-05
 5 25 5.80185547E-05-1.63148204E-04 3.04105249E-04 9.29223550E-05-8.18110523E-05
 5 26 1.70088304E-04-1.08855990E-05-7.55486203E-05 4.27263895E-06 2.64963581E-05
 5 27-6.53735700E-07-1.73442339E-05 3.24038284E-06 7.74907113E-06 4.58706728E-07
 5 28-1.00335338E-04-2.65358484E-04 1.30568302E-03-1.95675311E-04 1.21853641E-03
 5 29-1.62213728E-05 3.38151013E-04 3.26091273E-05 1.47310198E-04 4.20805137E-05
 5 30 1.66250494E-04-3.12503974E-05 1.05774029E-03-3.01890254E-05-4.13115009E-04
 6  1-3.08574821E-06-7.46364849E-05-1.93150539E-05 1.39855525E-05 3.05645757E-05
 6  2 3.82497242E-04 1.30668603E-04-9.89664601E-05-1.14300485E-04 2.10805291E-06
 6  3 3.35294474E-05-1.07404726E-05 1.40406389E-05-1.61374510E-06-1.39582630E-04
 6  4 1.63583873E-05-5.64885159E-05 4.88157482E-05 2.07651810E-05 1.88495880E-05
 6  5 1.04537622E-05 6.12685116E-06-2.92311124E-05 9.48213237E-05-6.88921941E-05
 6  6 2.52640634E-05 2.35883628E-04 3.08177989E-06 2.08882602E-05-3.14012771E-06
 6  7-3.85271161E-06 1.31166359E-06-2.41413404E-04 4.42090500E-05 4.99532950E-05
 6  8 1.31780700E-04-7.32114896E-07-5.12466368E-06 3.73586379E-06 2.02701560E-06
 6  9-2.06235362E-08 7.74313072E-05-7.80247560E-06-1.71675139E-05-6.43228726E-05
 6 10 6.21481012E-07 4.16505257E-06-3.85171421E-07-4.81124998E-07-3.90367009E-06
 6 11-4.33091415E-05-2.14045075E-05-1.37350592E-05-2.30205325E-07 1.38630120E-06
 6 12 8.36438647E-06 2.75996640E-06-1.00536138E-07 2.78241044E-06-2.54310161E-05
 6 13-3.13450902E-05-2.56299212E-06-9.15990577E-06 2.12532156E-06 9.26524938E-06
 6 14 6.91815686E-06 8.26572052E-06-9.32946447E-06 4.56731317E-05 1.16929542E-06
 6 15-2.13587235E-05 1.68371128E-05-4.28154114E-03-1.28961819E-03-6.65575110E-05
 6 16-3.00735660E-05 3.13709709E-04 9.29406537E-03 2.76764878E-03-4.93186709E-04
 6 17-3.83829820E-03 3.02868824E-02 7.21122924E-04 6.88471412E-05-4.21941864E-05
 6 18 7.97717858E-05-3.39339244E-03-2.08054461E-04-2.90808814E-04 1.70626033E-03
 6 19 3.21434947E-02 5.09819250E-04 5.07153548E-05-2.93054785E-05 1.95100844E-05
 6 20 2.42964682E-03-1.37489535E-03 8.19769633E-04-9.35878831E-04-3.61250972E-03
 6 21-1.11192490E-04 1.28899613E-04-7.42786132E-05 8.36660598E-05-3.20292738E-03
 6 22 1.58716964E-03-5.65495335E-04-7.53982746E-04 8.56082998E-02 1.00271486E-03
 6 23 1.66752610E-04-5.03574474E-05-1.22535639E-04 8.14623830E-03-2.05420449E-03
 6 24 5.84544537E-05 4.32887634E-03 9.91540655E-01 2.50559651E-02 4.27483954E-04
 6 25-3.41224338E-04 6.96909354E-04-2.09331256E-02-3.90942690E-03 2.50304754E-03
 6 26-3.60259045E-03-1.30579776E-06-3.53706177E-05 3.91034383E-06 1.54416370E-05
 6 27-4.29625985E-10-6.87342701E-06-1.29305760E-06-1.40265067E-05-3.74569807E-06
 6 28 1.05837953E-06-2.13628329E-05-2.17076809E-04 6.02111151E-05 5.97448297E-04
 6 29-3.78010351E-05-2.71313555E-04 1.88209526E-05 1.17729977E-03-3.48277546E-04
 6 30 8.31945611E-04 4.02981368E-05 4.59655524E-04-4.13093174E-05 1.63464831E-04
 7  1-5.07840607E-06-3.46956078E-05 8.82623038E-07 6.69426318E-06-3.86327262E-05
 7  2-5.00076963E-05 1.95901937E-04-1.50547266E-04 4.33347168E-04 6.38765457E-07
 7  3 8.78051207E-07-1.47472288E-05 1.72374237E-05 1.17074360E-05-1.69832685E-04
 7  4 5.91968108E-05-6.43146653E-05-4.01474127E-05 4.40917231E-06 2.63337601E-05
 7  5 2.22321505E-06 2.65089336E-06-2.98788626E-06-9.77234225E-05 8.33598424E-05
 7  6 8.46428488E-05 1.04243474E-04-5.83515273E-07-2.91425801E-06 8.31595515E-07
 7  7 3.53037203E-07 2.16113641E-06-2.09983581E-05-5.32434202E-05-2.63186842E-05
 7  8 3.08907249E-05 4.16076043E-08 2.87995331E-07-9.28819304E-07 3.91245957E-07
 7  9 1.13631839E-06-4.24032689E-05-2.30508987E-05-7.45944903E-06 1.00822094E-05
 7 10-1.43018596E-07-1.40083102E-06-5.13447718E-07 2.49698116E-07-1.55244844E-07
 7 11 2.47271984E-05 5.94999994E-06-1.54582549E-06-2.08773107E-05 2.09952767E-08
 7 12 6.76629039E-07-1.52837845E-06 4.78096116E-07 3.62135544E-07-1.11958490E-05
 7 13 5.38483017E-07-9.03280726E-06-3.34402695E-05-1.51458831E-06-8.37778181E-06
 7 14 7.61792421E-07-1.45881848E-06 3.82074862E-06 1.18640669E-04 6.88573199E-05
 7 15 3.94885279E-05 4.43246707E-05 2.68555645E-03 8.62625680E-04 8.76476979E-05
 7 16-5.88496928E-05 6.08362898E-05-9.17704792E-03-4.37154279E-03 2.09783879E-03
 7 17-3.82041835E-04-6.37208374E-01-1.71367509E-02-1.12746160E-05-1.32448741E-04
 7 18 6.11100377E-04 2.22688586E-02 1.58932563E-03 8.67039217E-04-7.43122827E-03
 7 19 7.65881242E-01 2.02622083E-02-5.55710424E-04 3.19473063E-04-3.73852361E-04
 7 20-2.33991739E-02 6.45476173E-03-3.63965512E-03 3.67790223E-03-1.90095936E-02
 7 21-1.42061903E-03 7.68029945E-05-1.71045667E-05-9.60338737E-05 1.06003973E-02
 7 22-3.88069857E-03 9.94677031E-04 3.78157160E-03-2.38732315E-03 2.09745628E-04
 7 23-1.04587622E-04 4.86130121E-05-1.81026718E-05-5.50283918E-03 5.14311626E-04
 7 24 3.66354723E-04-2.97622241E-03-5.27065562E-03-3.33657370E-04-4.39405135E-05
 7 25 9.12360681E-06 4.49076494E-05 4.23416956E-03 2.33924916E-03-1.25740033E-03
 7 26 9.59796188E-04 4.80341184E-06 1.28090406E-05 5.35558305E-07-8.56024680E-07
 7 27 2.33193635E-07 3.53382288E-06-1.79964880E-06-5.22307331E-06-2.58535057E-06
 7 28 2.28127222E-05 2.37412645E-04 1.04442074E-04-3.03251691E-04-1.84286983E-04
 7 29 4.54116986E-05 1.00274141E-03-5.52679833E-05-5.91803664E-04 9.26194693E-05
 7 30 5.62574602E-04-8.93356878E-05-1.13377847E-03 4.20039223E-06 9.79972522E-04
 8  1-2.12552132E-06-2.74725725E-05-2.05875232E-06-4.44907567E-06 4.20256273E-05
 8  2-1.23027051E-04 1.00644259E-04 2.39949966E-05-4.72457873E-04-7.05384065E-07
 8  3-5.94512814E-06 5.78689325E-06-3.78978797E-06-4.70080592E-06 7.94777781E-05
 8  4-2.32895037E-05 1.61043328E-05 1.96886814E-05-9.94258335E-06-1.00415485E-05
 8  5-1.95595094E-06-3.63064678E-06 7.78540865E-06 2.01151207E-05-5.07234404E-05
 8  6-3.73095876E-05-7.83434536E-05-8.74375476E-07-5.07403239E-06 9.27656315E-08
 8  7 9.43582320E-07 4.84988803E-07 4.59633085E-05 2.49211853E-05 6.52592938E-07
 8  8-4.21500187E-05 6.86920788E-08 6.85299618E-07-6.72909759E-07-5.04869876E-07
 8  9-7.84861019E-07 1.53460449E-05 1.59099439E-05 8.76088876E-06 5.58577908E-06
 8 10 1.05911260E-07 2.98484139E-07 3.13651163E-07 3.53665662E-07 1.46944844E-06
 8 11-1.67515154E-05-5.06447081E-06 1.91425726E-06 1.62192755E-05-7.96242015E-07
 8 12-4.27728981E-06-8.25620030E-07 1.42273487E-07-1.26256384E-06 3.24663748E-05
 8 13 2.17102314E-05 1.24028513E-05 3.12782414E-05 2.20434898E-07 2.79780979E-06
 8 14-8.37031891E-07-2.20328215E-06 4.47766136E-06-6.90759471E-05-2.86845968E-05
 8 15-1.97557260E-05-6.02600175E-05 3.34944329E-04 2.12770613E-04-2.45534508E-05
 8 16-9.80750635E-07 7.07973287E-05-5.18508137E-03-1.39577308E-03 2.04872300E-04
 8 17 2.16294088E-03 6.46107388E-04-2.36677923E-04-1.20105910E-05-1.05311836E-05
 8 18 7.56600967E-05 2.97526505E-03 7.40452717E-04 1.26218865E-04-2.16550458E-03
 8 19 2.67292404E-03 1.95365939E-04-2.91084443E-05-1.54120534E-05 1.44947908E-04
 8 20-4.68372501E-03 1.78488456E-03-1.05761502E-03 1.24081558E-03-1.92045416E-02
 8 21-1.61437596E-03 2.09366255E-04-1.07096542E-04 5.56710890E-05 1.05570976E-02
 8 22-4.93298335E-03 2.11736783E-03 5.57469396E-04 9.92339558E-01 2.54233854E-02
 8 23-3.97989474E-05-1.41533451E-04 8.29206870E-04-2.28596804E-02 8.21212721E-04
 8 24 9.99952742E-04-6.89933913E-03-8.63593583E-02-3.37860854E-03-2.68030468E-04
 8 25 1.25847282E-04-1.50867804E-05 1.26117632E-02 4.68666433E-03-2.49835374E-03
 8 26 1.83463350E-03-2.15988398E-06 2.02384149E-07-1.29248474E-06-2.70772390E-06
 8 27-4.63425716E-07-2.35627241E-06 2.14604447E-06 1.37665286E-05 1.23459274E-06
 8 28-4.16688489E-05 8.93263115E-05 6.22381281E-04-2.71871739E-05-3.62180398E-04
 8 29 2.12392226E-05 1.00809949E-03-3.61413897E-04 5.29897487E-04 2.78603447E-05
 8 30 9.15076826E-04 6.55927292E-05 5.09583321E-04-1.30893073E-05-4.14992512E-04
 9  1-6.24190752E-06-4.36059087E-05 3.20296255E-05-7.23583250E-06 1.11853992E-05
 9  2 6.30864459E-04-1.60872717E-04 6.55839084E-05 2.41537517E-04-1.11861137E-04
 9  3 9.14530175E-04-4.99578999E-05 8.62316973E-06 5.35835273E-06-4.36068992E-03
 9  4 1.25859451E-03 3.62681250E-04-1.48596788E-04 9.96195210E-01 2.53241067E-02
 9  5 1.19851624E-03 3.95783312E-04-8.15907682E-04-2.03175850E-02 7.15877030E-03
 9  6 2.67827883E-03-3.10611923E-03 5.33541329E-03-9.97171130E-04 5.92077635E-05
 9  7 5.23997499E-05 1.17171304E-04 1.07392022E-02-4.08775970E-03-2.74806828E-03
 9  8-4.33294607E-03 3.68992581E-05 2.34524131E-04-1.56947980E-04-5.67827681E-05
 9  9 7.98598871E-05-6.42990401E-03-6.88999043E-04 4.09914675E-04 3.55996247E-03
 9 10-1.68605859E-04-3.83791670E-04-5.07146585E-05-1.98516706E-05 2.85971094E-05
 9 11 5.20614842E-03 2.73380725E-03 9.28051468E-04-1.53665630E-03 2.51973296E-05
 9 12 2.15291208E-04-1.58975884E-04-5.35410878E-05 8.84738426E-05-6.25572278E-03
 9 13-2.64146032E-03-1.58615724E-03-1.96070180E-03 5.91483818E-03-9.82846142E-04
 9 14-6.04799345E-05-6.57171261E-05-1.51852698E-04 1.10590280E-02 6.64481301E-04
 9 15 1.71055263E-03 6.59841803E-03-1.36898838E-05-6.86947221E-05-1.80853699E-05
 9 16 4.31264229E-06 4.31359903E-05 9.45372620E-04 8.63664521E-05-3.09896361E-05
 9 17 1.05022254E-04-1.91749659E-05-3.15934214E-05-4.59753492E-05 4.94217494E-05
 9 18 1.71478058E-05 3.49911810E-04 5.30109210E-04-3.64834349E-04 1.38415511E-04
 9 19-9.33849431E-06 4.95501013E-05-9.10889665E-06-4.21257219E-06-2.16533816E-06
 9 20-4.41136556E-04 2.70032510E-04-7.64925073E-06-2.85553567E-04 2.11877589E-06
 9 21-7.83704864E-06 1.18753225E-05-5.07671248E-06 5.55647050E-06-1.37295344E-04
 9 22-8.55586104E-05 3.81262277E-05-9.55261680E-05 5.69405542E-06-1.74725610E-05
 9 23-8.66284164E-06 4.43215118E-06-5.55573581E-06 1.12488226E-04-7.26909538E-05
 9 24 1.07776754E-05 1.36982109E-04-1.48933078E-05 5.19366060E-05 1.08275826E-05
 9 25-1.08946993E-05 3.68015668E-06-3.46543581E-04-1.49826672E-04 9.96689078E-05
 9 26-1.43587546E-04 1.48856847E-04 1.73785900E-03-8.76871185E-05-6.98343947E-04
 9 27 1.03092902E-04 8.29693462E-04-9.43090247E-05-7.12449015E-04 1.05854429E-04
 9 28 1.95726336E-03 6.08953726E-05-4.21784283E-04 1.42241727E-05 2.15658641E-05
 9 29 1.13548859E-05 2.57072008E-05 1.05742778E-05 4.56763659E-05-7.72695839E-06
 9 30-6.00335874E-05-2.15119226E-04-4.23861426E-03 3.14724234E-04 4.87686370E-03
10  1 1.15657263E-06 2.83956483E-05-1.41236215E-05-1.02344933E-05 1.22210890E-05
10  2 1.03321366E-04 1.24466134E-04 3.01041623E-05-1.22081870E-04 5.63655962E-06
10  3-2.74631499E-05 3.42078085E-05 1.79302335E-05-5.26538775E-05 4.36060546E-05
10  4 4.33236620E-06 4.09821297E-05 5.57804528E-04-6.29454508E-03-1.20828856E-03
10  5 2.01510411E-04 1.22041420E-04 1.15900563E-04 8.50603662E-03-4.20143172E-03
10  6-2.06968913E-03-6.87079953E-04-1.19786180E-03-1.99237175E-05-1.39298832E-06
10  7 2.52561098E-05 1.24769480E-04-2.74571285E-03 1.45943608E-03 7.66255607E-04
10  8 5.28156939E-04-1.04729540E-03-2.85323010E-04-1.23839690E-05 9.66376828E-06
10  9 6.47916331E-05 2.93761124E-03 3.71027705E-04-1.80417961E-04-1.73887196E-03
10 10 2.05447270E-03 7.99198262E-05-9.24015409E-06 2.92336217E-05 1.50961951E-04
10 11-3.16673454E-03-1.58505669E-03-5.52201294E-04 8.74814643E-04 8.35461779E-02
10 12 1.00743575E-03-1.66969481E-04-6.95005797E-05 3.91590050E-05 7.58841185E-03
10 13 3.86096120E-03 1.92285465E-03 8.48892175E-04 9.92631584E-01 2.51457304E-02
10 14 1.75193442E-04 1.67346853E-04 3.02059202E-04-2.06197116E-02-3.44968113E-05
10 15-1.06078853E-03-4.76850340E-03-5.99611562E-06-2.72091656E-05-1.67836556E-05
10 16-2.35354422E-06 2.41119196E-05 2.85776506E-04 3.60834626E-04-1.46280568E-04
10 17-1.57502058E-04 6.41327169E-07 2.05710601E-05-6.71202047E-06 6.68991974E-06
10 18 5.96513385E-06-2.14397887E-04 7.95270205E-05-9.11160753E-05 2.03280373E-04
10 19-8.65092122E-07 3.86047441E-06-6.94187161E-06 1.39881594E-06 2.35952017E-07
10 20 1.09797337E-04-2.09495582E-05 3.64897149E-05-9.10672425E-05 7.71953008E-07
10 21 1.05717679E-05-2.87325608E-07-6.37001362E-07 3.34453394E-06-1.64886795E-04
10 22 6.97373660E-05-2.04384050E-05-6.71450665E-05-1.47461482E-06-1.07564897E-05
10 23-6.99494449E-06 2.10189826E-06 3.05387154E-06 2.63646397E-04-5.90008756E-05
10 24-5.28664272E-07 1.36031111E-04 2.10407867E-06 2.99266916E-05 9.06728555E-06
10 25-4.09710345E-06-1.14578735E-06-3.36791171E-04-2.31351497E-04 1.32908495E-04
10 26-1.09170456E-04-3.77458339E-05-2.12008257E-04 5.46479242E-05 4.73527779E-04
10 27-4.43575472E-05-3.05506652E-04-7.28627059E-06 1.04695772E-03-3.79766066E-04
10 28 1.40484391E-03-1.57389391E-06-1.22148831E-04 3.97365046E-06 1.54306238E-05
10 29-1.91971475E-06-2.41017861E-05 3.66676515E-06 2.83886662E-05-1.52546386E-05
10 30-8.95066306E-05-2.88933365E-05-6.87057114E-04 3.77206977E-05 1.39187251E-03
11  1 1.48782894E-06 1.77260666E-05 1.30995738E-05 1.44596713E-05-7.03966389E-06
11  2-1.23403377E-04-3.29524125E-05-5.36852503E-05-1.46175778E-05-6.78572505E-06
11  3-7.28948456E-05 1.53922887E-05 1.50743884E-05 1.08894779E-06 1.08279687E-04
11  4-2.66998257E-04-1.63633090E-04-9.23209504E-05 5.97236983E-04 1.71781430E-04
11  5 5.80067397E-05 3.02161841E-05 1.87303819E-05-4.57479959E-03 1.97552045E-03
11  6 9.32527091E-04 5.43871463E-05-4.50902551E-03-3.68223068E-04 5.56758375E-05
11  7 3.23070509E-05 3.83790557E-05 2.93668081E-03-1.71807888E-03-9.36273674E-04
11  8-7.55897930E-04 4.97573132E-03 2.16926459E-04 1.24655705E-04 6.88957819E-05
11  9 6.92933337E-05-4.16801239E-03-4.09765507E-04 2.60848603E-04 2.21257725E-03
11 10 4.35676935E-02 1.30362459E-06-7.20563754E-05-1.85958096E-06 1.59818512E-04
11 11 8.94834704E-03 3.30570112E-03 7.52793399E-04-3.64655361E-03 9.91714076E-01
11 12 2.52442956E-02 4.73514015E-04 2.22257947E-04 1.02479347E-04-2.19748473E-02
11 13-4.63586027E-03-2.64965674E-03-2.90945777E-03-8.40391509E-02-3.28863488E-03
11 14 1.96256057E-04 4.88719467E-05-1.92694930E-04 1.18613164E-02-2.06457420E-03
11 15 4.37623647E-05 4.64731113E-03-6.92590205E-07 1.64834583E-05-1.12951878E-05
11 16 2.14973556E-06 1.82455695E-05 7.38229027E-05 4.96784740E-05 3.45850814E-05
11 17-1.61225250E-04-7.14664745E-07 1.19978438E-06-7.17703741E-06 3.83593003E-06
11 18 1.81400105E-06 5.76170473E-05 4.26419005E-06-1.72132148E-05 1.42933664E-05
11 19 1.12270955E-07 5.93718017E-06-1.32943669E-06 7.78083113E-07-7.98226448E-07
11 20-1.44160608E-05 1.80765097E-05-1.32554139E-06-1.25866363E-05 2.06655392E-07
11 21 2.37841638E-06 9.43473113E-07-4.01207603E-07 2.20191690E-06-4.02115160E-05
11 22 1.30102139E-05-6.73747245E-06-7.08795037E-06-2.32526814E-07-4.24554010E-06
11 23-2.38235578E-06 1.63149588E-06-2.23757156E-07 5.61730027E-05 4.96823133E-07
11 24-8.81917509E-06 4.76755059E-05 1.24569013E-06 1.25456263E-05 3.14830801E-06
11 25-1.98996899E-06-2.17714884E-06-1.71228761E-04-3.62953326E-05 2.85782027E-05
11 26-8.83751511E-05 8.32325922E-05 5.40205284E-04-3.88783376E-05-3.56315395E-04
11 27 5.28199207E-06 1.06966903E-03-3.68597843E-04 9.19912186E-04 1.64059936E-05
11 28 6.62468831E-04-4.50514745E-07-2.68204914E-05 2.31874777E-07-2.89227505E-06
11 29 3.49501191E-07-3.72129318E-06 2.73898577E-06 1.20781819E-05-8.40169115E-07
11 30-2.44128403E-05-2.57673397E-05 4.50961913E-04-7.92486841E-05-2.01447312E-04
12  1 2.55684076E-06 2.88096011E-05 8.66965781E-06 1.33655895E-05-3.27376941E-06
12  2-1.35808416E-04-1.16345360E-05-5.25024148E-05-5.69165743E-05 1.71760388E-06
12  3-8.18728181E-05 1.89743171E-05 1.01008749E-05-3.54118511E-05 3.01964987E-04
12  4-1.25377114E-04-8.92293979E-05 1.53456033E-04-5.51337581E-03-1.18425950E-03
12  5 5.70973946E-05-2.20570967E-05-2.74717661E-04 7.88074615E-03-2.27958806E-03
12  6-3.67898391E-04 3.35211436E-03 9.53845504E-01 2.39001066E-02-2.06134728E-04
12  7-2.13152515E-04-4.36071514E-04-1.77436349E-02 2.60663619E-03 1.78402473E-03
12  8 2.90013221E-03 2.86561573E-01 6.17450599E-03-9.75957490E-05-3.82645095E-05
12  9 2.17236983E-05 3.24134153E-03 1.80193195E-03 2.44350692E-04-2.80856853E-03
12 10 1.38179067E-02 1.37091179E-04-1.43882583E-04-8.46140722E-05-9.93011898E-05
12 11-1.47341078E-03-6.43858873E-04-1.36161893E-04 7.63154474E-04 2.34472910E-03
12 12-1.91606787E-04-4.59631474E-05-3.69356351E-05-7.15367710E-05 1.96756931E-03
12 13 9.89010039E-04 6.10624384E-04 7.74295758E-04 1.20065974E-03-1.28713866E-05
12 14-7.55181046E-05-4.91820767E-05-1.01261735E-04-2.41567589E-03 1.45275006E-04
12 15-2.29744181E-04-1.29870240E-03-1.52412477E-06 1.67797345E-05-9.79382147E-06
12 16 5.61801669E-06 2.62974426E-05 8.23652908E-05 7.09486138E-05 1.84954145E-05