! 
! THIS FILE IS USED TO GENERATE THE RIGHT
! LOCALIZED ELECTRONIC DENSITY TO BE USED
! IN A SUBSEQUENT NEO CALCULATION TO GENERATE
! THE RIGHT LOCALIZED NUCLEAR-ELECTRONIC ORBITALS
! 
! 
 $CONTRL SCFTYP=ROHF RUNTYP=ENERGY MAXIT=200
         INTTYP=HONDO ICHARG=1 MULT=2 $END 
 $SYSTEM TIMLIM=3000 MEMORY=60000000  $END 
# $SCF SOSCF=.F. DIIS=.T.  $END 
 $INTGRL SCHWRZ=.F. $END 
 $BASIS  GBASIS=N31 NGAUSS=6 $END 
 $DATA 
 
 C1 
 O 8.0    0.000000     0.000000    -1.200748
 O 8.0    0.000000     0.000000     1.200748
 C 6.0   -1.114666    -0.400558     1.749899
 C 6.0   -1.307180    -0.207036     3.150282
 C 6.0   -2.479880    -0.616856     3.759596
 C 6.0   -3.498257    -1.226627     3.007797
 C 6.0   -3.323431    -1.426760     1.629474
 C 6.0   -2.153726    -1.033298     1.000684
 C 6.0    1.114666    -0.400558    -1.749899
 C 6.0    2.153727    -1.033309    -1.000695
 C 6.0    3.323415    -1.426764    -1.629516
 C 6.0    3.498237    -1.226624    -3.007839
 C 6.0    2.479865    -0.616833    -3.759629
 C 6.0    1.307176    -0.207021    -3.150281
 H 1.0   -0.510170     0.275234     3.707418
 H 1.0   -2.616289    -0.462710     4.826741
 H 1.0   -4.415323    -1.547947     3.492806
 H 1.0   -4.109267    -1.904896     1.050621
 H 1.0   -2.002195    -1.195765    -0.061871
 H 1.0    2.002199    -1.195787     0.061859
 H 1.0    4.109246    -1.904915    -1.050671
 H 1.0    4.415300    -1.547945    -3.492852
 H 1.0    2.616271    -0.462682    -4.826774
 H 1.0    0.510165     0.275257    -3.707408
 H 1.0    0.000000     0.000000    -0.275
 H 1.0    0.000000     0.000000     0.20
 $END 
