!
! A NEO-DFT TEST FILE WHERE ONLY THE ELECTRON-ELECTRON DENSITY
! FUNCTIONAL IS USED. THIS METHOD IS REFERED TO AS NEO-DFT-(ee)
! THE SYSTEM IS [FHF]- WITH THE aug-cc-PVTZ ELECTRONIC BASIS SET
! THE FUNCTIONAL USED IS LYP
!
!
!         -----------------
!         DENSITY CONVERGED
!         -----------------
!    TIME TO FORM FOCK OPERATORS=      29.4 SECONDS (       2.3 SEC/ITER)
!    TIME TO SOLVE SCF EQUATIONS=       0.5 SECONDS (       0.0 SEC/ITER)
!
!FINAL R-LYP ENERGY IS     -200.2802816520 AFTER  13 ITERATIONS
!DFT EXCHANGE + CORRELATION ENERGY =        -0.7351066832
!TOTAL ELECTRON NUMBER             =        19.9986822761
!
!    ---------------------------------------------------------------------
!    PROPERTIES FOR THE LYP      DFT FUNCTIONAL (RHF  TYPE) DENSITY MATRIX
!    ---------------------------------------------------------------------
!
!                   -----------------
!                   ENERGY COMPONENTS
!                   -----------------
!
!              NEO WAVEFUNCTION NORMALIZATION =       1.0000000000
!
!                         ONE ELECTRON ENERGY =    -332.0310971261
!                         TWO ELECTRON ENERGY =     113.8104959700
!                          ONE NUCLEUS ENERGY =       8.4945325080
!                          TWO NUCLEUS ENERGY =       0.0000000000
!               MIXED ELECTRON-NUCLEUS ENERGY =      -9.6387350057
!          CLASSICAL NUCLEAR REPULSION ENERGY =      19.0845220018
!                                     ----------------------------
!                                TOTAL ENERGY =    -200.2802816520
!
!
 $CONTRL SCFTYP=RHF RUNTYP=ENERGY MAXIT=200
         INTTYP=HONDO ICHARG=-1 MULT=1 ISPHER=1 $END
 $INTGRL SCHWRZ=.F. $END
 $SCF    DIIS=.T. CONV=1.0D-07 $END
 $DFT DFTTYP = LYP $END
 $NEO NEOSCF=RONHF BASNUC=DZSPDN NUNIQN=1
      IUNIQN(1)=3 NUMULT=2 EXCH=.T.
      DIRNUC=.T.  $END
 $GUESS  GUESS=MOREAD NORB=106 $END
 $DATA

 C1
 F           9.0    .0000000000    .0000000000 -1.1229874446 
 S   8
  1        19500.00000         0.5070000000E-03
  2        2923.000000         0.3923000000E-02
  3        664.5000000         0.2020000000E-01
  4        187.5000000         0.7901000000E-01
  5        60.62000000         0.2304390000    
  6        21.42000000         0.4328720000    
  7        7.950000000         0.3499640000    
  8       0.8815000000        -0.7892000000E-02
 S   8
  1        19500.00000        -0.1170000000E-03
  2        2923.000000        -0.9120000000E-03
  3        664.5000000        -0.4717000000E-02
  4        187.5000000        -0.1908600000E-01
  5        60.62000000        -0.5965500000E-01
  6        21.42000000        -0.1400100000    
  7        7.950000000        -0.1767820000    
  8       0.8815000000         0.6050430000    
 S   1
  1        2.257000000          1.000000000    
 S   1
  1       0.3041000000          1.000000000    
 P   3
  1        43.88000000         0.1666500000E-01
  2        9.926000000         0.1044720000    
  3        2.930000000         0.3172600000    
 P   1
  1       0.9132000000          1.000000000    
 P   1
  1       0.2672000000          1.000000000    
 D   1
  1        3.107000000          1.000000000    
 D   1
  1       0.8550000000          1.000000000    
 F   1
  1        1.917000000          1.000000000    
 S   1
  1       0.915800000E-01      1.00000000    
 P   1
  1       0.736100000E-01      1.00000000    
 D   1
  1       0.292000000          1.00000000    
 F   1
  1       0.724000000          1.00000000    

 F           9.0    .0000000000    .0000000000  1.1229874446 
 S   8
  1        19500.00000         0.5070000000E-03
  2        2923.000000         0.3923000000E-02
  3        664.5000000         0.2020000000E-01
  4        187.5000000         0.7901000000E-01
  5        60.62000000         0.2304390000    
  6        21.42000000         0.4328720000    
  7        7.950000000         0.3499640000    
  8       0.8815000000        -0.7892000000E-02
 S   8
  1        19500.00000        -0.1170000000E-03
  2        2923.000000        -0.9120000000E-03
  3        664.5000000        -0.4717000000E-02
  4        187.5000000        -0.1908600000E-01
  5        60.62000000        -0.5965500000E-01
  6        21.42000000        -0.1400100000    
  7        7.950000000        -0.1767820000    
  8       0.8815000000         0.6050430000    
 S   1
  1        2.257000000          1.000000000    
 S   1
  1       0.3041000000          1.000000000    
 P   3
  1        43.88000000         0.1666500000E-01
  2        9.926000000         0.1044720000    
  3        2.930000000         0.3172600000    
 P   1
  1       0.9132000000          1.000000000    
 P   1
  1       0.2672000000          1.000000000    
 D   1
  1        3.107000000          1.000000000    
 D   1
  1       0.8550000000          1.000000000    
 F   1
  1        1.917000000          1.000000000    
 S   1
  1       0.915800000E-01      1.00000000    
 P   1
  1       0.736100000E-01      1.00000000    
 D   1
  1       0.292000000          1.00000000    
 F   1
  1       0.724000000          1.00000000    

 H           1.0    .0000000000    .0000000000   -.000000000
 S   3
  1        33.87000000         0.6068000000E-02
  2        5.095000000         0.4530800000E-01
  3        1.159000000         0.2028220000    
 S   1
  1       0.3258000000          1.000000000    
 S   1
  1       0.1027000000          1.000000000    
 P   1
  1        1.407000000          1.000000000    
 P   1
  1       0.3880000000          1.000000000    
 D   1
  1        1.057000000          1.000000000    

 $END
 $VEC   
 1  1-6.89778272E-01 6.93455036E-04-3.08524586E-02-3.18651130E-03 0.00000000E+00
 1  2 0.00000000E+00-3.80918620E-04 0.00000000E+00 0.00000000E+00 2.87021278E-04
 1  3 0.00000000E+00 0.00000000E+00-6.59421016E-04 1.40167599E-05 1.40167599E-05
 1  4-2.80335199E-05 0.00000000E+00 0.00000000E+00 0.00000000E+00-7.41186689E-05
 1  5-7.41186689E-05 1.48237338E-04 0.00000000E+00 0.00000000E+00 0.00000000E+00
 1  6 0.00000000E+00 0.00000000E+00 3.75242634E-05 0.00000000E+00-2.51720411E-05
 1  7 0.00000000E+00-2.51720411E-05 0.00000000E+00 0.00000000E+00 0.00000000E+00
 1  8 9.19817735E-04 0.00000000E+00 0.00000000E+00 3.23177852E-04 1.57039805E-04
 1  9 1.57039805E-04-3.14079611E-04 0.00000000E+00 0.00000000E+00 0.00000000E+00
 1 10 0.00000000E+00 0.00000000E+00-3.64647628E-05 0.00000000E+00 2.44613065E-05
 1 11 0.00000000E+00 2.44613065E-05 0.00000000E+00 0.00000000E+00 0.00000000E+00
 1 12 6.89775465E-01-6.93449186E-04 3.08523325E-02 3.18649199E-03 0.00000000E+00
 1 13 0.00000000E+00-3.80917006E-04 0.00000000E+00 0.00000000E+00 2.87018981E-04
 1 14 0.00000000E+00 0.00000000E+00-6.59411217E-04-1.40167922E-05-1.40167922E-05
 1 15 2.80335844E-05 0.00000000E+00 0.00000000E+00 0.00000000E+00 7.41184765E-05
 1 16 7.41184765E-05-1.48236953E-04 0.00000000E+00 0.00000000E+00 0.00000000E+00
 1 17 0.00000000E+00 0.00000000E+00 3.75239224E-05 0.00000000E+00-2.51718124E-05
 1 18 0.00000000E+00-2.51718124E-05 0.00000000E+00 0.00000000E+00 0.00000000E+00
 1 19-9.19825091E-04 0.00000000E+00 0.00000000E+00 3.23180129E-04-1.57037886E-04
 1 20-1.57037886E-04 3.14075772E-04 0.00000000E+00 0.00000000E+00 0.00000000E+00
 1 21 0.00000000E+00 0.00000000E+00-3.64639784E-05 0.00000000E+00 2.44607804E-05
 1 22 0.00000000E+00 2.44607804E-05 0.00000000E+00 0.00000000E+00 0.00000000E+00
 1 23-1.39697047E-10 9.70078522E-09 9.03643547E-09 0.00000000E+00 0.00000000E+00
 1 24 3.87646228E-04 0.00000000E+00 0.00000000E+00-6.14190407E-04 3.31158850E-10
 1 25 3.31159440E-10-6.62318290E-10 0.00000000E+00 0.00000000E+00 0.00000000E+00
 2  1-6.89353499E-01 1.43653083E-03-3.09612278E-02-4.74271283E-03 0.00000000E+00
 2  2 0.00000000E+00-3.96126025E-04 0.00000000E+00 0.00000000E+00 5.63949023E-04
 2  3 0.00000000E+00 0.00000000E+00-2.40608769E-03-7.95738320E-06-7.95738320E-06
 2  4 1.59147664E-05 0.00000000E+00 0.00000000E+00 0.00000000E+00-4.72527254E-05
 2  5-4.72527254E-05 9.45054508E-05 0.00000000E+00 0.00000000E+00 0.00000000E+00
 2  6 0.00000000E+00 0.00000000E+00 8.36773599E-05 0.00000000E+00-5.61324795E-05
 2  7 0.00000000E+00-5.61324795E-05 0.00000000E+00 0.00000000E+00 0.00000000E+00
 2  8-1.80617738E-03 0.00000000E+00 0.00000000E+00-5.58965611E-04 4.71286762E-04
 2  9 4.71286762E-04-9.42573524E-04 0.00000000E+00 0.00000000E+00 0.00000000E+00
 2 10 0.00000000E+00 0.00000000E+00-1.92738807E-04 0.00000000E+00 1.29293122E-04
 2 11 0.00000000E+00 1.29293122E-04 0.00000000E+00 0.00000000E+00 0.00000000E+00
 2 12-6.89356308E-01 1.43653366E-03-3.09613535E-02-4.74272581E-03 0.00000000E+00
 2 13 0.00000000E+00 3.96127576E-04 0.00000000E+00 0.00000000E+00-5.63950191E-04
 2 14 0.00000000E+00 0.00000000E+00 2.40609038E-03-7.95732617E-06-7.95732617E-06
 2 15 1.59146523E-05 0.00000000E+00 0.00000000E+00 0.00000000E+00-4.72530272E-05
 2 16-4.72530272E-05 9.45060544E-05 0.00000000E+00 0.00000000E+00 0.00000000E+00
 2 17 0.00000000E+00 0.00000000E+00-8.36775127E-05 0.00000000E+00 5.61325820E-05
 2 18 0.00000000E+00 5.61325820E-05 0.00000000E+00 0.00000000E+00 0.00000000E+00
 2 19-1.80617363E-03 0.00000000E+00 0.00000000E+00 5.58964294E-04 4.71287401E-04
 2 20 4.71287401E-04-9.42574802E-04 0.00000000E+00 0.00000000E+00 0.00000000E+00
 2 21 0.00000000E+00 0.00000000E+00 1.92738956E-04 0.00000000E+00-1.29293222E-04
 2 22 0.00000000E+00-1.29293222E-04 0.00000000E+00 0.00000000E+00 0.00000000E+00
 2 23-6.87467705E-05 4.76321606E-03 4.43800575E-03 0.00000000E+00 0.00000000E+00
 2 24-7.89434947E-10 0.00000000E+00 0.00000000E+00 1.24413282E-09 1.62643440E-04
 2 25 1.62643440E-04-3.25286879E-04 0.00000000E+00 0.00000000E+00 0.00000000E+00
 3  1 4.22669025E-03-3.81897234E-01-1.08981842E-01-2.58005085E-01 0.00000000E+00
 3  2 0.00000000E+00-1.69968465E-02 0.00000000E+00 0.00000000E+00-2.57361656E-02
 3  3 0.00000000E+00 0.00000000E+00-1.67557316E-02 4.59699609E-04 4.59699609E-04
 3  4-9.19399219E-04 0.00000000E+00 0.00000000E+00 0.00000000E+00 2.60212390E-03
 3  5 2.60212390E-03-5.20424780E-03 0.00000000E+00 0.00000000E+00 0.00000000E+00
 3  6 0.00000000E+00 0.00000000E+00-6.64666897E-04 0.00000000E+00 4.45872109E-04
 3  7 0.00000000E+00 4.45872109E-04 0.00000000E+00 0.00000000E+00 0.00000000E+00
 3  8-3.05217370E-02 0.00000000E+00 0.00000000E+00-4.29256076E-03 1.07349929E-03
 3  9 1.07349929E-03-2.14699857E-03 0.00000000E+00 0.00000000E+00 0.00000000E+00
 3 10 0.00000000E+00 0.00000000E+00-9.84213534E-04 0.00000000E+00 6.60230510E-04
 3 11 0.00000000E+00 6.60230510E-04 0.00000000E+00 0.00000000E+00 0.00000000E+00
 3 12 4.22669024E-03-3.81897232E-01-1.08981841E-01-2.58005084E-01 0.00000000E+00
 3 13 0.00000000E+00 1.69968464E-02 0.00000000E+00 0.00000000E+00 2.57361655E-02
 3 14 0.00000000E+00 0.00000000E+00 1.67557316E-02 4.59699607E-04 4.59699607E-04
 3 15-9.19399215E-04 0.00000000E+00 0.00000000E+00 0.00000000E+00 2.60212389E-03
 3 16 2.60212389E-03-5.20424778E-03 0.00000000E+00 0.00000000E+00 0.00000000E+00
 3 17 0.00000000E+00 0.00000000E+00 6.64666894E-04 0.00000000E+00-4.45872107E-04
 3 18 0.00000000E+00-4.45872107E-04 0.00000000E+00 0.00000000E+00 0.00000000E+00
 3 19-3.05217369E-02 0.00000000E+00 0.00000000E+00 4.29256077E-03 1.07349929E-03
 3 20 1.07349929E-03-2.14699858E-03 0.00000000E+00 0.00000000E+00 0.00000000E+00
 3 21 0.00000000E+00 0.00000000E+00 9.84213533E-04 0.00000000E+00-6.60230509E-04
 3 22 0.00000000E+00-6.60230509E-04 0.00000000E+00 0.00000000E+00 0.00000000E+00
 3 23-5.86851928E-02-3.22101105E-02 3.66645012E-02 0.00000000E+00 0.00000000E+00
 3 24 3.09300066E-11 0.00000000E+00 0.00000000E+00 5.03270934E-11 1.75572161E-03
 3 25 1.75572161E-03-3.51144322E-03 0.00000000E+00 0.00000000E+00 0.00000000E+00
 4  1-3.05026353E-03 4.00800906E-01 1.14609459E-01 2.62891332E-01 0.00000000E+00
 4  2 0.00000000E+00 4.91279661E-03 0.00000000E+00 0.00000000E+00 9.89880814E-03
 4  3 0.00000000E+00 0.00000000E+00-1.02104993E-03-2.57620980E-04-2.57620980E-04
 4  4 5.15241960E-04 0.00000000E+00 0.00000000E+00 0.00000000E+00-1.35107482E-03
 4  5-1.35107482E-03 2.70214965E-03 0.00000000E+00 0.00000000E+00 0.00000000E+00
 4  6 0.00000000E+00 0.00000000E+00 4.31127504E-04 0.00000000E+00-2.89209122E-04
 4  7 0.00000000E+00-2.89209122E-04 0.00000000E+00 0.00000000E+00 0.00000000E+00
 4  8 1.61316692E-02 0.00000000E+00 0.00000000E+00-5.25602705E-04 6.64361044E-04
 4  9 6.64361044E-04-1.32872209E-03 0.00000000E+00 0.00000000E+00 0.00000000E+00
 4 10 0.00000000E+00 0.00000000E+00 5.03067693E-04 0.00000000E+00-3.37468067E-04
 4 11 0.00000000E+00-3.37468067E-04 0.00000000E+00 0.00000000E+00 0.00000000E+00
 4 12 3.05026354E-03-4.00800907E-01-1.14609459E-01-2.62891333E-01 0.00000000E+00
 4 13 0.00000000E+00 4.91279667E-03 0.00000000E+00 0.00000000E+00 9.89880822E-03
 4 14 0.00000000E+00 0.00000000E+00-1.02104987E-03 2.57620981E-04 2.57620981E-04
 4 15-5.15241962E-04 0.00000000E+00 0.00000000E+00 0.00000000E+00 1.35107483E-03
 4 16 1.35107483E-03-2.70214966E-03 0.00000000E+00 0.00000000E+00 0.00000000E+00
 4 17 0.00000000E+00 0.00000000E+00 4.31127507E-04 0.00000000E+00-2.89209123E-04
 4 18 0.00000000E+00-2.89209123E-04 0.00000000E+00 0.00000000E+00 0.00000000E+00
 4 19-1.61316694E-02 0.00000000E+00 0.00000000E+00-5.25602688E-04-6.64361042E-04
 4 20-6.64361042E-04 1.32872208E-03 0.00000000E+00 0.00000000E+00 0.00000000E+00
 4 21 0.00000000E+00 0.00000000E+00 5.03067696E-04 0.00000000E+00-3.37468070E-04
 4 22 0.00000000E+00-3.37468070E-04 0.00000000E+00 0.00000000E+00 0.00000000E+00
 4 23-7.69263222E-11-6.06453942E-11 6.90822424E-11 0.00000000E+00 0.00000000E+00
 4 24-1.20476016E-02 0.00000000E+00 0.00000000E+00-2.15316023E-02 0.00000000E+00
 4 25 0.00000000E+00 0.00000000E+00 0.00000000E+00 0.00000000E+00 0.00000000E+00
 5  1-1.44328021E-03-8.68736591E-02-2.78576111E-02-7.55416200E-02 0.00000000E+00
 5  2 0.00000000E+00 2.22840175E-01 0.00000000E+00 0.00000000E+00 2.78571284E-01
 5  3 0.00000000E+00 0.00000000E+00 2.04560365E-01-1.52939365E-03-1.52939365E-03
 5  4 3.05878729E-03 0.00000000E+00 0.00000000E+00 0.00000000E+00-6.34438748E-03
 5  5-6.34438748E-03 1.26887750E-02 0.00000000E+00 0.00000000E+00 0.00000000E+00
 5  6 0.00000000E+00 0.00000000E+00 1.55223388E-03 0.00000000E+00-1.04127014E-03
 5  7 0.00000000E+00-1.04127014E-03 0.00000000E+00 0.00000000E+00 0.00000000E+00
 5  8 4.17923355E-06 0.00000000E+00 0.00000000E+00 3.22494169E-02-3.44811024E-03
 5  9-3.44811024E-03 6.89622047E-03 0.00000000E+00 0.00000000E+00 0.00000000E+00
 5 10 0.00000000E+00 0.00000000E+00 2.47473932E-03 0.00000000E+00-1.66010561E-03
 5 11 0.00000000E+00-1.66010561E-03 0.00000000E+00 0.00000000E+00 0.00000000E+00
 5 12-1.44328021E-03-8.68736590E-02-2.78576111E-02-7.55416198E-02 0.00000000E+00
 5 13 0.00000000E+00-2.22840175E-01 0.00000000E+00 0.00000000E+00-2.78571284E-01
 5 14 0.00000000E+00 0.00000000E+00-2.04560365E-01-1.52939364E-03-1.52939364E-03
 5 15 3.05878728E-03 0.00000000E+00 0.00000000E+00 0.00000000E+00-6.34438747E-03
 5 16-6.34438747E-03 1.26887749E-02 0.00000000E+00 0.00000000E+00 0.00000000E+00
 5 17 0.00000000E+00 0.00000000E+00-1.55223388E-03 0.00000000E+00 1.04127014E-03
 5 18 0.00000000E+00 1.04127014E-03 0.00000000E+00 0.00000000E+00 0.00000000E+00
 5 19 4.17929451E-06 0.00000000E+00 0.00000000E+00-3.22494169E-02-3.44811025E-03
 5 20-3.44811025E-03 6.89622051E-03 0.00000000E+00 0.00000000E+00 0.00000000E+00
 5 21 0.00000000E+00 0.00000000E+00-2.47473933E-03 0.00000000E+00 1.66010561E-03
 5 22 0.00000000E+00 1.66010561E-03 0.00000000E+00 0.00000000E+00 0.00000000E+00
 5 23 1.32911885E-01 1.26338940E-01-3.44190956E-02 0.00000000E+00 0.00000000E+00
 5 24-1.36075669E-11 0.00000000E+00 0.00000000E+00-9.43880826E-11-8.55196108E-04
 5 25-8.55196108E-04 1.71039222E-03 0.00000000E+00 0.00000000E+00 0.00000000E+00
 6  1 0.00000000E+00 0.00000000E+00 0.00000000E+00 0.00000000E+00 2.49934447E-01
 6  2-5.86185681E-02 0.00000000E+00 3.08278299E-01-7.23022884E-02 0.00000000E+00
 6  3 2.44317036E-01-5.73010843E-02 0.00000000E+00 0.00000000E+00 0.00000000E+00
 6  4 0.00000000E+00 0.00000000E+00 1.06479562E-03-2.49732661E-04 0.00000000E+00
 6  5 0.00000000E+00 0.00000000E+00 0.00000000E+00 5.90551944E-03-1.38505555E-03
 6  6-4.47233282E-04 1.04892203E-04 0.00000000E+00 4.69092229E-05 0.00000000E+00
 6  7-2.00008820E-04 0.00000000E+00 8.00035233E-04-1.87636880E-04 0.00000000E+00
 6  8 0.00000000E+00 4.55076042E-02-1.06731610E-02 0.00000000E+00 0.00000000E+00
 6  9 0.00000000E+00 0.00000000E+00 0.00000000E+00 4.95541485E-03-1.16222204E-03
 6 10-1.44281273E-03 3.38391196E-04 0.00000000E+00 1.51333149E-04 0.00000000E+00
 6 11-6.45245495E-04 0.00000000E+00 2.58098191E-03-6.05332580E-04 0.00000000E+00
 6 12 0.00000000E+00 0.00000000E+00 0.00000000E+00 0.00000000E+00 2.49934445E-01
 6 13-5.86185677E-02 0.00000000E+00 3.08278297E-01-7.23022879E-02 0.00000000E+00
 6 14 2.44317034E-01-5.73010839E-02 0.00000000E+00 0.00000000E+00 0.00000000E+00
 6 15 0.00000000E+00 0.00000000E+00-1.06479561E-03 2.49732660E-04 0.00000000E+00
 6 16 0.00000000E+00 0.00000000E+00 0.00000000E+00-5.90551942E-03 1.38505555E-03
 6 17-4.47233280E-04 1.04892202E-04 0.00000000E+00 4.69092225E-05 0.00000000E+00
 6 18-2.00008819E-04 0.00000000E+00 8.00035228E-04-1.87636879E-04 0.00000000E+00
 6 19 0.00000000E+00 4.55076040E-02-1.06731610E-02 0.00000000E+00 0.00000000E+00
 6 20 0.00000000E+00 0.00000000E+00 0.00000000E+00-4.95541483E-03 1.16222203E-03
 6 21-1.44281273E-03 3.38391195E-04 0.00000000E+00 1.51333149E-04 0.00000000E+00
 6 22-6.45245492E-04 0.00000000E+00 2.58098190E-03-6.05332579E-04 0.00000000E+00
 6 23 0.00000000E+00 0.00000000E+00 0.00000000E+00 8.97078665E-03-2.10397036E-03
 6 24 0.00000000E+00 1.12248113E-02-2.63261976E-03 0.00000000E+00 0.00000000E+00
 6 25 0.00000000E+00 0.00000000E+00 0.00000000E+00-1.81331770E-11 0.00000000E+00
 7  1 0.00000000E+00 0.00000000E+00 0.00000000E+00 0.00000000E+00-5.86185681E-02
 7  2-2.49934447E-01 0.00000000E+00-7.23022884E-02-3.08278299E-01 0.00000000E+00
 7  3-5.73010843E-02-2.44317036E-01 0.00000000E+00 0.00000000E+00 0.00000000E+00
 7  4 0.00000000E+00 0.00000000E+00-2.49732661E-04-1.06479562E-03 0.00000000E+00
 7  5 0.00000000E+00 0.00000000E+00 0.00000000E+00-1.38505555E-03-5.90551944E-03
 7  6 1.04892203E-04 4.47233282E-04 0.00000000E+00 2.00008820E-04 0.00000000E+00
 7  7 4.69092229E-05 0.00000000E+00-1.87636880E-04-8.00035233E-04 0.00000000E+00
 7  8 0.00000000E+00-1.06731610E-02-4.55076042E-02 0.00000000E+00 0.00000000E+00
 7  9 0.00000000E+00 0.00000000E+00 0.00000000E+00-1.16222204E-03-4.95541485E-03
 7 10 3.38391196E-04 1.44281273E-03 0.00000000E+00 6.45245495E-04 0.00000000E+00
 7 11 1.51333149E-04 0.00000000E+00-6.05332580E-04-2.58098191E-03 0.00000000E+00
 7 12 0.00000000E+00 0.00000000E+00 0.00000000E+00 0.00000000E+00-5.86185677E-02
 7 13-2.49934445E-01 0.00000000E+00-7.23022879E-02-3.08278297E-01 0.00000000E+00
 7 14-5.73010839E-02-2.44317034E-01 0.00000000E+00 0.00000000E+00 0.00000000E+00
 7 15 0.00000000E+00 0.00000000E+00 2.49732660E-04 1.06479561E-03 0.00000000E+00
 7 16 0.00000000E+00 0.00000000E+00 0.00000000E+00 1.38505555E-03 5.90551942E-03
 7 17 1.04892202E-04 4.47233280E-04 0.00000000E+00 2.00008819E-04 0.00000000E+00
 7 18 4.69092225E-05 0.00000000E+00-1.87636879E-04-8.00035228E-04 0.00000000E+00
 7 19 0.00000000E+00-1.06731610E-02-4.55076040E-02 0.00000000E+00 0.00000000E+00
 7 20 0.00000000E+00 0.00000000E+00 0.00000000E+00 1.16222203E-03 4.95541483E-03
 7 21 3.38391195E-04 1.44281273E-03 0.00000000E+00 6.45245492E-04 0.00000000E+00
 7 22 1.51333149E-04 0.00000000E+00-6.05332579E-04-2.58098190E-03 0.00000000E+00
 7 23 0.00000000E+00 0.00000000E+00 0.00000000E+00-2.10397036E-03-8.97078665E-03
 7 24 0.00000000E+00-2.63261976E-03-1.12248113E-02 0.00000000E+00 0.00000000E+00
 7 25 0.00000000E+00 0.00000000E+00 0.00000000E+00 0.00000000E+00 1.81353195E-11
 8  1 0.00000000E+00 0.00000000E+00 0.00000000E+00 0.00000000E+00-2.47816048E-01
 8  2 9.53800283E-02 0.00000000E+00-3.05137680E-01 1.17442114E-01 0.00000000E+00
 8  3-2.44875102E-01 9.42481097E-02 0.00000000E+00 0.00000000E+00 0.00000000E+00
 8  4 0.00000000E+00 0.00000000E+00-8.24592420E-04 3.17371086E-04 0.00000000E+00
 8  5 0.00000000E+00 0.00000000E+00 0.00000000E+00-3.47297517E-03 1.33668692E-03
 8  6 2.70311713E-04-1.04038213E-04 0.00000000E+00-4.65273168E-05 0.00000000E+00
 8  7 1.20887108E-04 0.00000000E+00-4.83548328E-04 1.86109227E-04 0.00000000E+00
 8  8 0.00000000E+00-5.29775598E-02 2.03901288E-02 0.00000000E+00 0.00000000E+00
 8  9 0.00000000E+00 0.00000000E+00 0.00000000E+00-4.16007140E-03 1.60113815E-03
 8 10 8.52031372E-04-3.27931855E-04 0.00000000E+00-1.46655572E-04 0.00000000E+00
 8 11 3.81039984E-04 0.00000000E+00-1.52416002E-03 5.86622324E-04 0.00000000E+00
 8 12 0.00000000E+00 0.00000000E+00 0.00000000E+00 0.00000000E+00 2.47816050E-01
 8 13-9.53800288E-02 0.00000000E+00 3.05137681E-01-1.17442114E-01 0.00000000E+00
 8 14 2.44875103E-01-9.42481102E-02 0.00000000E+00 0.00000000E+00 0.00000000E+00
 8 15 0.00000000E+00 0.00000000E+00-8.24592425E-04 3.17371088E-04 0.00000000E+00
 8 16 0.00000000E+00 0.00000000E+00 0.00000000E+00-3.47297519E-03 1.33668693E-03
 8 17-2.70311715E-04 1.04038214E-04 0.00000000E+00 4.65273171E-05 0.00000000E+00
 8 18-1.20887109E-04 0.00000000E+00 4.83548331E-04-1.86109228E-04 0.00000000E+00
 8 19 0.00000000E+00 5.29775601E-02-2.03901289E-02 0.00000000E+00 0.00000000E+00
 8 20 0.00000000E+00 0.00000000E+00 0.00000000E+00-4.16007143E-03 1.60113816E-03
 8 21-8.52031380E-04 3.27931858E-04 0.00000000E+00 1.46655574E-04 0.00000000E+00
 8 22-3.81039988E-04 0.00000000E+00 1.52416004E-03-5.86622330E-04 0.00000000E+00
 8 23 0.00000000E+00 0.00000000E+00 0.00000000E+00 1.79894883E-11 0.00000000E+00
 8 24 0.00000000E+00 2.26407044E-11-1.00218674E-11 0.00000000E+00 0.00000000E+00
 8 25 0.00000000E+00 0.00000000E+00 0.00000000E+00 5.90719281E-03-2.27357438E-03
 9  1 0.00000000E+00 0.00000000E+00 0.00000000E+00 0.00000000E+00 9.53800283E-02
 9  2 2.47816048E-01 0.00000000E+00 1.17442114E-01 3.05137680E-01 0.00000000E+00
 9  3 9.42481097E-02 2.44875102E-01 0.00000000E+00 0.00000000E+00 0.00000000E+00
 9  4 0.00000000E+00 0.00000000E+00 3.17371086E-04 8.24592420E-04 0.00000000E+00
 9  5 0.00000000E+00 0.00000000E+00 0.00000000E+00 1.33668692E-03 3.47297517E-03
 9  6-1.04038213E-04-2.70311713E-04 0.00000000E+00-1.20887108E-04 0.00000000E+00
 9  7-4.65273168E-05 0.00000000E+00 1.86109227E-04 4.83548328E-04 0.00000000E+00
 9  8 0.00000000E+00 2.03901288E-02 5.29775598E-02 0.00000000E+00 0.00000000E+00
 9  9 0.00000000E+00 0.00000000E+00 0.00000000E+00 1.60113815E-03 4.16007140E-03
 9 10-3.27931855E-04-8.52031372E-04 0.00000000E+00-3.81039984E-04 0.00000000E+00
 9 11-1.46655572E-04 0.00000000E+00 5.86622324E-04 1.52416002E-03 0.00000000E+00
 9 12 0.00000000E+00 0.00000000E+00 0.00000000E+00 0.00000000E+00-9.53800288E-02
 9 13-2.47816050E-01 0.00000000E+00-1.17442114E-01-3.05137681E-01 0.00000000E+00
 9 14-9.42481102E-02-2.44875103E-01 0.00000000E+00 0.00000000E+00 0.00000000E+00
 9 15 0.00000000E+00 0.00000000E+00 3.17371088E-04 8.24592425E-04 0.00000000E+00
 9 16 0.00000000E+00 0.00000000E+00 0.00000000E+00 1.33668693E-03 3.47297519E-03
 9 17 1.04038214E-04 2.70311715E-04 0.00000000E+00 1.20887109E-04 0.00000000E+00
 9 18 4.65273171E-05 0.00000000E+00-1.86109228E-04-4.83548331E-04 0.00000000E+00
 9 19 0.00000000E+00-2.03901289E-02-5.29775601E-02 0.00000000E+00 0.00000000E+00
 9 20 0.00000000E+00 0.00000000E+00 0.00000000E+00 1.60113816E-03 4.16007143E-03
 9 21 3.27931858E-04 8.52031380E-04 0.00000000E+00 3.81039988E-04 0.00000000E+00
 9 22 1.46655574E-04 0.00000000E+00-5.86622330E-04-1.52416004E-03 0.00000000E+00
 9 23 0.00000000E+00 0.00000000E+00 0.00000000E+00 0.00000000E+00-1.79911734E-11
 9 24 0.00000000E+00-1.00238534E-11-2.26388165E-11 0.00000000E+00 0.00000000E+00
 9 25 0.00000000E+00 0.00000000E+00 0.00000000E+00-2.27357438E-03-5.90719281E-03
10  1 1.06116070E-03 2.57053907E-03-9.80078439E-04-2.76582185E-02 0.00000000E+00
10  2 0.00000000E+00 2.68288178E-01 0.00000000E+00 0.00000000E+00 3.30708125E-01
10  3 0.00000000E+00 0.00000000E+00 2.39542476E-01-9.50548196E-04-9.50548196E-04
10  4 1.90109639E-03 0.00000000E+00 0.00000000E+00 0.00000000E+00-3.04345254E-03
10  5-3.04345254E-03 6.08690507E-03 0.00000000E+00 0.00000000E+00 0.00000000E+00
10  6 0.00000000E+00 0.00000000E+00 1.10086013E-03 0.00000000E+00-7.38479426E-04
10  7 0.00000000E+00-7.38479426E-04 0.00000000E+00 0.00000000E+00 0.00000000E+00
10  8 6.46037140E-03 0.00000000E+00 0.00000000E+00 6.08381350E-02 2.15271828E-03
10  9 2.15271828E-03-4.30543655E-03 0.00000000E+00 0.00000000E+00 0.00000000E+00
10 10 0.00000000E+00 0.00000000E+00 1.51593718E-03 0.00000000E+00-1.01692158E-03
10 11 0.00000000E+00-1.01692158E-03 0.00000000E+00 0.00000000E+00 0.00000000E+00
10 12-1.06116069E-03-2.57053902E-03 9.80078457E-04 2.76582184E-02 0.00000000E+00
10 13 0.00000000E+00 2.68288178E-01 0.00000000E+00 0.00000000E+00 3.30708125E-01
10 14 0.00000000E+00 0.00000000E+00 2.39542477E-01 9.50548196E-04 9.50548196E-04
10 15-1.90109639E-03 0.00000000E+00 0.00000000E+00 0.00000000E+00 3.04345254E-03
10 16 3.04345254E-03-6.08690508E-03 0.00000000E+00 0.00000000E+00 0.00000000E+00
10 17 0.00000000E+00 0.00000000E+00 1.10086013E-03 0.00000000E+00-7.38479427E-04
10 18 0.00000000E+00-7.38479427E-04 0.00000000E+00 0.00000000E+00 0.00000000E+00
10 19-6.46037136E-03 0.00000000E+00 0.00000000E+00 6.08381351E-02-2.15271827E-03
10 20-2.15271827E-03 4.30543654E-03 0.00000000E+00 0.00000000E+00 0.00000000E+00
10 21 0.00000000E+00 0.00000000E+00 1.51593718E-03 0.00000000E+00-1.01692158E-03
10 22 0.00000000E+00-1.01692158E-03 0.00000000E+00 0.00000000E+00 0.00000000E+00
10 23 0.00000000E+00 2.43461523E-11-3.07523702E-11 0.00000000E+00 0.00000000E+00
10 24-2.09945558E-02 0.00000000E+00 0.00000000E+00-8.32559687E-02 0.00000000E+00
10 25 0.00000000E+00 0.00000000E+00 0.00000000E+00 0.00000000E+00 0.00000000E+00
11  1 1.48281105E-02 6.89352491E-02 1.98037509E-02-2.27732306E-01 0.00000000E+00
11  2 0.00000000E+00-5.19087191E-02 0.00000000E+00 0.00000000E+00-5.37734895E-02
11  3 0.00000000E+00 0.00000000E+00-3.61923293E-01-2.15798453E-03-2.15798453E-03
11  4 4.31596906E-03 0.00000000E+00 0.00000000E+00 0.00000000E+00 1.98143350E-02
11  5 1.98143350E-02-3.96286699E-02 0.00000000E+00 0.00000000E+00 0.00000000E+00
11  6 0.00000000E+00 0.00000000E+00-6.61811623E-04 0.00000000E+00 4.43956733E-04
11  7 0.00000000E+00 4.43956733E-04 0.00000000E+00 0.00000000E+00 0.00000000E+00
11  8 1.01998548E+00 0.00000000E+00 0.00000000E+00 1.52474065E+00-1.91992749E-02
11  9-1.91992749E-02 3.83985498E-02 0.00000000E+00 0.00000000E+00 0.00000000E+00
11 10 0.00000000E+00 0.00000000E+00-2.90921773E-03 0.00000000E+00 1.95156258E-03
11 11 0.00000000E+00 1.95156258E-03 0.00000000E+00 0.00000000E+00 0.00000000E+00
11 12-1.48281105E-02-6.89352489E-02-1.98037509E-02 2.27732306E-01 0.00000000E+00
11 13 0.00000000E+00-5.19087191E-02 0.00000000E+00 0.00000000E+00-5.37734894E-02
11 14 0.00000000E+00 0.00000000E+00-3.61923292E-01 2.15798452E-03 2.15798452E-03
11 15-4.31596904E-03 0.00000000E+00 0.00000000E+00 0.00000000E+00-1.98143349E-02
11 16-1.98143349E-02 3.96286698E-02 0.00000000E+00 0.00000000E+00 0.00000000E+00
11 17 0.00000000E+00 0.00000000E+00-6.61811627E-04 0.00000000E+00 4.43956736E-04
11 18 0.00000000E+00 4.43956736E-04 0.00000000E+00 0.00000000E+00 0.00000000E+00
11 19-1.01998548E+00 0.00000000E+00 0.00000000E+00 1.52474064E+00 1.91992751E-02
11 20 1.91992751E-02-3.83985502E-02 0.00000000E+00 0.00000000E+00 0.00000000E+00
11 21 0.00000000E+00 0.00000000E+00-2.90921763E-03 0.00000000E+00 1.95156252E-03
11 22 0.00000000E+00 1.95156252E-03 0.00000000E+00 0.00000000E+00 0.00000000E+00
11 23-8.44542025E-11 1.76767613E-09-2.96368169E-09 0.00000000E+00 0.00000000E+00
11 24 9.69386664E-03 0.00000000E+00 0.00000000E+00-2.72802603E-01-4.26228913E-11
11 25-4.26238663E-11 8.52467576E-11 0.00000000E+00 0.00000000E+00 0.00000000E+00
12  1 4.11525790E-03-2.96817151E-02-1.92665484E-02-5.81574158E-02 0.00000000E+00
12  2 0.00000000E+00 2.47844112E-02 0.00000000E+00 0.00000000E+00 4.46564441E-02
12  3 0.00000000E+00 0.00000000E+00 1.67823023E-01 1.95712903E-03 1.95712903E-03
12  4-3.91425807E-03 0.00000000E+00 0.00000000E+00 0.00000000E+00-2.30913250E-02
12  5-2.30913250E-02 4.61826500E-02 0.00000000E+00 0.00000000E+00 0.00000000E+00
12  6 0.00000000E+00 0.00000000E+00-1.76236023E-03 0.00000000E+00 1.18222718E-03
12  7 0.00000000E+00 1.18222718E-03 0.00000000E+00 0.00000000E+00 0.00000000E+00
12  8-1.99385796E+00 0.00000000E+00 0.00000000E+00-1.79747132E+00-4.17410484E-03
12  9-4.17410484E-03 8.34820968E-03 0.00000000E+00 0.00000000E+00 0.00000000E+00
12 10 0.00000000E+00 0.00000000E+00 2.70372962E-02 0.00000000E+00-1.81371697E-02
12 11 0.00000000E+00-1.81371697E-02 0.00000000E+00 0.00000000E+00 0.00000000E+00
12 12 4.11525783E-03-2.96817153E-02-1.92665484E-02-5.81574150E-02 0.00000000E+00
12 13 0.00000000E+00-2.47844113E-02 0.00000000E+00 0.00000000E+00-4.46564442E-02
12 14 0.00000000E+00 0.00000000E+00-1.67823024E-01 1.95712904E-03 1.95712904E-03
12 15-3.91425808E-03 0.00000000E+00 0.00000000E+00 0.00000000E+00-2.30913250E-02
12 16-2.30913250E-02 4.61826501E-02 0.00000000E+00 0.00000000E+00 0.00000000E+00
12 17 0.00000000E+00 0.00000000E+00 1.76236024E-03 0.00000000E+00-1.18222719E-03
12 18 0.00000000E+00-1.18222719E-03 0.00000000E+00 0.00000000E+00 0.00000000E+00
12 19-1.99385796E+00 0.00000000E+00 0.00000000E+00 1.79747132E+00-4.17410492E-03
12 20-4.17410492E-03 8.34820985E-03 0.00000000E+00 0.00000000E+00 0.00000000E+00
12 21 0.00000000E+00 0.00000000E+00-2.70372963E-02 0.00000000E+00 1.81371697E-02
12 22 0.00000000E+00 1.81371697E-02 0.00000000E+00 0.00000000E+00 0.00000000E+00
12 23 6.68896408E-02-6.54733442E-01 5.57035987E+00 0.00000000E+00 0.00000000E+00
12 24 5.84556566E-11 0.00000000E+00 0.00000000E+00-7.24576439E-10 1.82729316E-02
12 25 1.82729316E-02-3.65458632E-02 0.00000000E+00 0.00000000E+00 0.00000000E+00
13  1-2.48130091E-02-1.42915382E-01-4.82144864E-02 6.16221739E-02 0.00000000E+00