! Test of EFP covalent linkage options, from Vis Kairys.
!
! This relatively simple example tests the truncation of LMO 
! tails and the QM/MM routines.
!
! Do the following:
! 1. Run this test, lys1.inp
!    The final energy is -490.9804701226. 
!    The number of orbitals in the buffer (NMOPR) should be 6.
! 2. Copy the *.dat file from this file to a convenient place,
!    delete everything from the start to up to line containing
!    '=======' in it.
!    It consists of two input decks separated by multiple '='.
! 3. Copy the *.dat file to a new file, say, lys2.inp which
!    will be a makefp run (creating the fragment potential).
!    Remove the QM/MM input deck, i.e. remove everything 
!    from the first line up to the second set of '==='.
!    Change charge into ICHARG=0 in $CONTRL. 
!    Add POLDYN=.FALSE. to $LOCAL, to permit the use of
!    numerical polarizabilities, by avoiding some new 
!    options added to GAMESS in 2005.
!    Finally, run lys2.inp.
!    The final energy is -304.6944655604.
!    The mean alpha polarizability of LMO 13 varies considerably
!    on different machines: 0.102189404  AXP
!                           0.102199990  HP
!                           0.102273242  IBM
!                           0.102266162  Linux
!                           0.102153658  SGI
!                           0.102190561  Sun
! 4. Copy the punch file lys2.dat from the run in (3) into the current
!    directory. Edit it: 
!      (a) delete everything from the beginning up to "EFFECTIVE FRAGMENTS"
!      (b) change $FRAGNAME into, say, $MYEFP.
!      (c) delete everything from "PROJECTION BASIS SET" till the end
!      (d) add $END at the very end of the file.
! 5. Copy the *.dat file made in step (2) to a new input file, say, lys3.inp.
!    which is the actual QM/MM run.
!    Delete everything from the line containing words "MAKEFP RUN" to 
!    the end of the file, and set ICHARG in $CONTRL to +1.
!    In $EFRAG, FRAGNAME=MYEFP; remove < and > brackets from the center names
!    in $EFRAG. Change OPTIMIZE in $CONTRL to GRADIENT to make a shorter test.
! 6. Append the file lys2.dat created in step (4) to lys3.inp.
! 7. Run lys3.inp. Final energy is -221.4036614600, RMS Grad=0.021810449
!
!   numerical results updated 5 May 2005.
!   CPU times on IBM RS/6000-350: lys1=272, lys2=91, lys3=71 seconds.
!   note, in 2005, the unmodified lys2 input file from 2001 failed to run.
!
 $contrl scftyp=rhf icharg=1 runtyp=energy local=boys MULT=1 $end
 $SYSTEM TIMLIM=72000 MEMORY=1000000 $END
 $LOCAL  FCORE=.t. moidon=.t. $end
 $BASIS  GBASIS=MINI $END
 $scf    diis=.t. soscf=.f. dirscf=.t. damp=.t. fdiff=.f. $end
 $TRUNCN DOPROJ=.T. PLAIN=.t. natab=13 natbf=5 $end 
 $end
 $DATA 
**********Lysine************
C1
 H1           1.0   5.2212722503   0.6959139139   0.7941076868
 N2         7.0   4.5600163226   0.3902960947   0.0930036092
 H3         1.0   4.5610152064   1.0805690359  -0.6456365990
 H4         1.0   4.9122133859  -0.4710181198  -0.3017852620
 C5         6.0   3.1647366134   0.2052681089   0.6675352606
 H6         1.0   3.2601587706  -0.5290432426   1.4539798539
 H7         1.0   2.8939761108   1.1566140237   1.1013514785
 C8         6.0   2.1944046756  -0.2266540203  -0.4217858236
 H9         1.0   2.5243001931  -1.1686737254  -0.8543890962
 H10         1.0   2.1913596283   0.5143578523  -1.2175680822
 C11        6.0   0.7782571402  -0.3706988360   0.1480019244
 H12        1.0   0.7677646943  -1.1212821250   0.9294741261
 H13        1.0   0.4865818951   0.5685798896   0.6009603661
 C14        6.0  -0.2323463640  -0.7424639300  -0.9402203751
 H15        1.0  -0.0075964170  -1.7360174569  -1.3217078352
 H16       1.0  -0.1459013313  -0.0561720987  -1.7748182464
 C17        6.0  -1.6855633649  -0.7345359675  -0.4629306995
 H18        1.0  -2.3124809086  -1.0358736419  -1.3050983599
 C19        6.0  -2.1469047234   0.6750468600  -0.1269607421
 N20        7.0  -1.8568947050  -1.5922054448   0.6986236532
 H21        1.0  -2.7877134253  -1.5230963027   1.0609039749
 H22        1.0  -1.7098518449  -2.5502485827   0.4442839846
 O23        8.0  -3.3377044155   0.6773716468   0.4511861323
 O24        8.0  -1.5492963747   1.6714370229  -0.3787168700
 H25       1.0  -3.6030096260   1.5776866126   0.6190152854
 $END
