 10
  s 1
  1  8.9346 1.0
  s 1
  1  1.5904 1.0
  s 1
  1  0.51619 1.0
  s 1
  1  0.11092 1.0
  s 1
  1  0.052472 1.0
  s 1
  1  0.024562 1.0
  p 1
  1  0.47831 1.0
  p 1
  1  0.18726 1.0
  p 1
  1  0.069729 1.0
  d 1
  1  0.15439 1.0

! note, the first part of this file is a basis set to be read,
! in other words, use this input file as POSBAS as well as INPUT.
!
!    RESULTS OF NEO-MP2 CORRECTION ARE
!                  E(0)=        -0.6668719085
!                  E(1)=         0.0
!                E(2EE)=        -0.0263092783
!                E(2EP)=        -0.0285158557
!                E(MP2)=        -0.7216970425
!    HF  ANNIHILATION RATE (1/NSEC) =    0.29773563
!    HF  POSITRON LIFETIME (NSEC  ) =    3.35868437
!    MP2 ANN RATE CORR     (1/NSEC) =     .10091033
!    MP2 ANNIHILATION RATE (1/NSEC) =     .39864596
!    MP2 POSITRON LIFETIME (NSEC  ) =    2.50849149
!
! Reported in J. Phys. Chem. A, 2008, 112 (6), pp 1346–1351
!
 $CONTRL SCFTYP=RHF RUNTYP=energy
         ICHARG=0 MULT=1
         EXETYP=run nosym=0 MPLEVL=2
         coord=unique ispher=0 qmttol=1e-08 $END 
 $SCF    SOSCF=.f. DIIS=.T. ethrsh=1.5  
         dirscf=.f. fdiff=.t. $END 
 $NEO    NEOSCF=ronhf basnuc=readin nucst=1
         NUMULT=2 SYMNUC=.f. NEMPLV=2 
         DIRNUC=.f.
         NUNIQN=1 IUNIQN(1)=2 IUNIQT(1)=1 
         posneo=.T. posprp=.t.
         $END 
 $GUESS  GUESS=MOREAD NORB=21 $END
 $GESNMO GUESS=MOREAD NORB=21 $END
 $DATA  
                                                                                
C1
H           1.0      0.0000000000      0.0000000000      0.0000000000
   S       1
     1             66.0110000000  1.00000000
   S       1
     1             10.0020000000  1.00000000
   S       1
     1              2.3585000000  1.00000000
   S       1
     1              0.7365900000  1.00000000
   S       1
     1              0.2684700000  1.00000000
   S       1
     1              0.0493780000  1.00000000
   P       1
     1              0.6777100000  1.00000000
   P       1
     1              0.1992200000  1.00000000
   P       1
     1              0.0753040000  1.00000000
   D       1
     1              0.1723200000  1.00000000
        
H           1.0      0.0000000000      0.0000000000      0.0000000000
        
 $END      
   S      1
     1         8.9346000000  1.00000000
   S      1
     1         1.5904000000  1.00000000
   S      1
     1         0.5161900000  1.00000000
   S      1
     1         0.1109200000  1.00000000
   S      1
     1         0.0524720000  1.00000000
   S      1
     1         0.0245620000  1.00000000
   P      1
     1         0.4783100000  1.00000000
   P      1
     1         0.1872600000  1.00000000
   P      1
     1         0.0697290000  1.00000000
   D      1
     1         0.1543900000  1.00000000
       
--- OPEN SHELL ORBITALS --- GENERATED AT Tue Mar 21 19:18:06 2006
                                                                                
E(ROHF)=       -0.6668719085, E(NUC)=    0.0000000000,    7 ITERS
 $VEC
 1  1 2.01629696E-03 1.48421818E-02 6.45263790E-02 1.51751675E-01 4.62079239E-01
 1  2 3.31917334E-01 0.00000000E+00 0.00000000E+00 0.00000000E+00 0.00000000E+00
 1  3 0.00000000E+00 0.00000000E+00 0.00000000E+00 0.00000000E+00 0.00000000E+00
 1  4 8.10642184E-02 8.10642184E-02 8.10642184E-02 0.00000000E+00 0.00000000E+00
 1  5 0.00000000E+00
 2  1-7.89577010E-04-1.12988955E-02-9.35953365E-03-2.02182310E-01-7.11074238E-01
 2  2 2.10693561E+00 0.00000000E+00 0.00000000E+00 0.00000000E+00 0.00000000E+00
 2  3 0.00000000E+00 0.00000000E+00 0.00000000E+00 0.00000000E+00 0.00000000E+00
 2  4-5.44566169E-01-5.44566169E-01-5.44566169E-01 0.00000000E+00 0.00000000E+00
 2  5 0.00000000E+00
 3  1 0.00000000E+00 0.00000000E+00 0.00000000E+00 0.00000000E+00 0.00000000E+00
 3  2 0.00000000E+00 0.00000000E+00 6.49495406E-02 0.00000000E+00 0.00000000E+00
 3  3-3.26954256E-01 0.00000000E+00 0.00000000E+00 1.21172408E+00 0.00000000E+00
 3  4 0.00000000E+00 0.00000000E+00 0.00000000E+00 0.00000000E+00 0.00000000E+00
 3  5 0.00000000E+00
 4  1 0.00000000E+00 0.00000000E+00 0.00000000E+00 0.00000000E+00 0.00000000E+00
 4  2 0.00000000E+00 0.00000000E+00 0.00000000E+00 6.49495406E-02 0.00000000E+00
 4  3 0.00000000E+00-3.26954256E-01 0.00000000E+00 0.00000000E+00 1.21172408E+00
 4  4 0.00000000E+00 0.00000000E+00 0.00000000E+00 0.00000000E+00 0.00000000E+00
 4  5 0.00000000E+00
 5  1 0.00000000E+00 0.00000000E+00 0.00000000E+00 0.00000000E+00 0.00000000E+00
 5  2 0.00000000E+00 6.49495406E-02 0.00000000E+00 0.00000000E+00-3.26954256E-01
 5  3 0.00000000E+00 0.00000000E+00 1.21172408E+00 0.00000000E+00 0.00000000E+00
 5  4 0.00000000E+00 0.00000000E+00 0.00000000E+00 0.00000000E+00 0.00000000E+00
 5  5 0.00000000E+00
 6  1 0.00000000E+00 0.00000000E+00 0.00000000E+00 0.00000000E+00 0.00000000E+00
 6  2 0.00000000E+00 0.00000000E+00 0.00000000E+00 0.00000000E+00 0.00000000E+00
 6  3 0.00000000E+00 0.00000000E+00 0.00000000E+00 0.00000000E+00 0.00000000E+00
 6  4 9.42176412E-01-7.61308306E-01-1.80868105E-01 0.00000000E+00 0.00000000E+00
 6  5 0.00000000E+00
 7  1 0.00000000E+00 0.00000000E+00 0.00000000E+00 0.00000000E+00 0.00000000E+00
 7  2 0.00000000E+00 0.00000000E+00 0.00000000E+00 0.00000000E+00 0.00000000E+00
 7  3 0.00000000E+00 0.00000000E+00 0.00000000E+00 0.00000000E+00 0.00000000E+00
 7  4 0.00000000E+00 0.00000000E+00 0.00000000E+00 1.00000000E+00 0.00000000E+00
 7  5 0.00000000E+00
 8  1 0.00000000E+00 0.00000000E+00 0.00000000E+00 0.00000000E+00 0.00000000E+00
 8  2 0.00000000E+00 0.00000000E+00 0.00000000E+00 0.00000000E+00 0.00000000E+00
 8  3 0.00000000E+00 0.00000000E+00 0.00000000E+00 0.00000000E+00 0.00000000E+00
 8  4 0.00000000E+00 0.00000000E+00 0.00000000E+00 0.00000000E+00 0.00000000E+00
 8  5 1.00000000E+00
 9  1 0.00000000E+00 0.00000000E+00 0.00000000E+00 0.00000000E+00 0.00000000E+00
 9  2 0.00000000E+00 0.00000000E+00 0.00000000E+00 0.00000000E+00 0.00000000E+00
 9  3 0.00000000E+00 0.00000000E+00 0.00000000E+00 0.00000000E+00 0.00000000E+00
 9  4 0.00000000E+00 0.00000000E+00 0.00000000E+00 0.00000000E+00 1.00000000E+00
 9  5 0.00000000E+00
10  1 0.00000000E+00 0.00000000E+00 0.00000000E+00 0.00000000E+00 0.00000000E+00
10  2 0.00000000E+00 0.00000000E+00 0.00000000E+00 0.00000000E+00 0.00000000E+00
10  3 0.00000000E+00 0.00000000E+00 0.00000000E+00 0.00000000E+00 0.00000000E+00
10  4-3.35117306E-01-6.48390054E-01 9.83507361E-01 0.00000000E+00 0.00000000E+00
10  5 0.00000000E+00
11  1 2.98418794E-03 3.56277334E-03 1.60121028E-01-2.97366280E-01 7.40487329E-01
11  2 1.53928780E+00 0.00000000E+00 0.00000000E+00 0.00000000E+00 0.00000000E+00
11  3 0.00000000E+00 0.00000000E+00 0.00000000E+00 0.00000000E+00 0.00000000E+00
11  4-1.04752914E+00-1.04752914E+00-1.04752914E+00 0.00000000E+00 0.00000000E+00
11  5 0.00000000E+00
12  1 0.00000000E+00 0.00000000E+00 0.00000000E+00 0.00000000E+00 0.00000000E+00
12  2 0.00000000E+00 0.00000000E+00-1.41996321E-01 0.00000000E+00 0.00000000E+00
12  3 1.62766502E+00 0.00000000E+00 0.00000000E+00-1.00813183E+00 0.00000000E+00
12  4 0.00000000E+00 0.00000000E+00 0.00000000E+00 0.00000000E+00 0.00000000E+00
12  5 0.00000000E+00
13  1 0.00000000E+00 0.00000000E+00 0.00000000E+00 0.00000000E+00 0.00000000E+00
13  2 0.00000000E+00-1.41996321E-01 0.00000000E+00 0.00000000E+00 1.62766502E+00
13  3 0.00000000E+00 0.00000000E+00-1.00813183E+00 0.00000000E+00 0.00000000E+00
13  4 0.00000000E+00 0.00000000E+00 0.00000000E+00 0.00000000E+00 0.00000000E+00
13  5 0.00000000E+00
14  1 0.00000000E+00 0.00000000E+00 0.00000000E+00 0.00000000E+00 0.00000000E+00
14  2 0.00000000E+00 0.00000000E+00 0.00000000E+00-1.41996321E-01 0.00000000E+00
14  3 0.00000000E+00 1.62766502E+00 0.00000000E+00 0.00000000E+00-1.00813183E+00
14  4 0.00000000E+00 0.00000000E+00 0.00000000E+00 0.00000000E+00 0.00000000E+00
14  5 0.00000000E+00
15  1-4.98594903E-04-6.95156227E-02 1.99207900E-01-2.72253844E+00 2.85101469E+00
15  2 8.67572057E-01 0.00000000E+00 0.00000000E+00 0.00000000E+00 0.00000000E+00
15  3 0.00000000E+00 0.00000000E+00 0.00000000E+00 0.00000000E+00 0.00000000E+00
15  4-8.22366992E-01-8.22366992E-01-8.22366992E-01 0.00000000E+00 0.00000000E+00
15  5 0.00000000E+00
16  1 0.00000000E+00 0.00000000E+00 0.00000000E+00 0.00000000E+00 0.00000000E+00
16  2 0.00000000E+00 0.00000000E+00 1.41969883E+00 0.00000000E+00 0.00000000E+00
16  3-1.25542687E+00 0.00000000E+00 0.00000000E+00 5.21027370E-01 0.00000000E+00
16  4 0.00000000E+00 0.00000000E+00 0.00000000E+00 0.00000000E+00 0.00000000E+00
16  5 0.00000000E+00
17  1 0.00000000E+00 0.00000000E+00 0.00000000E+00 0.00000000E+00 0.00000000E+00
17  2 0.00000000E+00 0.00000000E+00 0.00000000E+00 1.41969883E+00 0.00000000E+00
17  3 0.00000000E+00-1.25542687E+00 0.00000000E+00 0.00000000E+00 5.21027370E-01
17  4 0.00000000E+00 0.00000000E+00 0.00000000E+00 0.00000000E+00 0.00000000E+00
17  5 0.00000000E+00
18  1 0.00000000E+00 0.00000000E+00 0.00000000E+00 0.00000000E+00 0.00000000E+00
18  2 0.00000000E+00 1.41969883E+00 0.00000000E+00 0.00000000E+00-1.25542687E+00
18  3 0.00000000E+00 0.00000000E+00 5.21027370E-01 0.00000000E+00 0.00000000E+00
18  4 0.00000000E+00 0.00000000E+00 0.00000000E+00 0.00000000E+00 0.00000000E+00
18  5 0.00000000E+00
19  1-1.96734786E-02 1.04605267E-01-2.22897497E+00 3.48764375E+00-2.12446909E+00
19  2-4.51342881E-01 0.00000000E+00 0.00000000E+00 0.00000000E+00 0.00000000E+00
19  3 0.00000000E+00 0.00000000E+00 0.00000000E+00 0.00000000E+00 0.00000000E+00
19  4 4.53546949E-01 4.53546949E-01 4.53546949E-01 0.00000000E+00 0.00000000E+00
19  5 0.00000000E+00
20  1 5.07887537E-02-1.66853943E+00 2.14191531E+00-1.86036661E+00 9.88984192E-01
20  2 2.10312957E-01 0.00000000E+00 0.00000000E+00 0.00000000E+00 0.00000000E+00
20  3 0.00000000E+00 0.00000000E+00 0.00000000E+00 0.00000000E+00 0.00000000E+00
20  4-2.07992150E-01-2.07992150E-01-2.07992150E-01 0.00000000E+00 0.00000000E+00
20  5 0.00000000E+00
21  1 1.27581918E+00-1.09629133E+00 8.22397134E-01-6.64426422E-01 3.55208745E-01
21  2 7.83187492E-02 0.00000000E+00 0.00000000E+00 0.00000000E+00 0.00000000E+00
21  3 0.00000000E+00 0.00000000E+00 0.00000000E+00 0.00000000E+00 0.00000000E+00
21  4-7.64301682E-02-7.64301682E-02-7.64301682E-02 0.00000000E+00 0.00000000E+00
21  5 0.00000000E+00
 $END
--- RHF ORBITALS --- GENERATED AT Tue Mar 21 19:18:06 2006
                                                                                
E(RHF)=       -0.6668719085, E(NUC)=    0.0000000000,    7 ITERS
 $VECPRO
 1  1-2.01750286E-03-1.33065888E-02-4.26439386E-02 1.49428156E-01 5.16517898E-01
 1  2 3.74457702E-01 0.00000000E+00 0.00000000E+00 0.00000000E+00 0.00000000E+00
 1  3 0.00000000E+00 0.00000000E+00 0.00000000E+00 0.00000000E+00 0.00000000E+00
 1  4 1.15813790E-02 1.15813790E-02 1.15813790E-02 0.00000000E+00 0.00000000E+00
 1  5 0.00000000E+00
 2  1 0.00000000E+00 0.00000000E+00 0.00000000E+00 0.00000000E+00 0.00000000E+00
 2  2 0.00000000E+00 0.00000000E+00 3.38998104E-02 0.00000000E+00 0.00000000E+00
 2  3-1.70620330E-01 0.00000000E+00 0.00000000E+00 1.11085747E+00 0.00000000E+00
 2  4 0.00000000E+00 0.00000000E+00 0.00000000E+00 0.00000000E+00 0.00000000E+00
 2  5 0.00000000E+00
 3  1 0.00000000E+00 0.00000000E+00 0.00000000E+00 0.00000000E+00 0.00000000E+00
 3  2 0.00000000E+00 0.00000000E+00 0.00000000E+00 3.38998104E-02 0.00000000E+00
 3  3 0.00000000E+00-1.70620330E-01 0.00000000E+00 0.00000000E+00 1.11085747E+00
 3  4 0.00000000E+00 0.00000000E+00 0.00000000E+00 0.00000000E+00 0.00000000E+00
 3  5 0.00000000E+00
 4  1 0.00000000E+00 0.00000000E+00 0.00000000E+00 0.00000000E+00 0.00000000E+00
 4  2 0.00000000E+00 3.38998104E-02 0.00000000E+00 0.00000000E+00-1.70620330E-01
 4  3 0.00000000E+00 0.00000000E+00 1.11085747E+00 0.00000000E+00 0.00000000E+00
 4  4 0.00000000E+00 0.00000000E+00 0.00000000E+00 0.00000000E+00 0.00000000E+00
 4  5 0.00000000E+00
 5  1-2.61792158E-03 1.71515140E-03-1.24453027E-01-2.39978628E-01 3.10117589E+00
 5  2-2.65245599E+00 0.00000000E+00 0.00000000E+00 0.00000000E+00 0.00000000E+00
 5  3 0.00000000E+00 0.00000000E+00 0.00000000E+00 0.00000000E+00 0.00000000E+00
 5  4-1.50472579E-01-1.50472579E-01-1.50472579E-01 0.00000000E+00 0.00000000E+00
 5  5 0.00000000E+00
 6  1-5.80245058E-04 7.11095122E-02-2.74582169E-01-3.05702911E+00 6.75549687E+00
 6  2-2.70783076E+00 0.00000000E+00 0.00000000E+00 0.00000000E+00 0.00000000E+00
 6  3 0.00000000E+00 0.00000000E+00 0.00000000E+00 0.00000000E+00 0.00000000E+00
 6  4-6.89727165E-01-6.89727165E-01-6.89727165E-01 0.00000000E+00 0.00000000E+00
 6  5 0.00000000E+00
 7  1 0.00000000E+00 0.00000000E+00 0.00000000E+00 0.00000000E+00 0.00000000E+00
 7  2 0.00000000E+00 0.00000000E+00 0.00000000E+00 0.00000000E+00 0.00000000E+00
 7  3 0.00000000E+00 0.00000000E+00 0.00000000E+00 0.00000000E+00 0.00000000E+00
 7  4-2.63694226E-01-7.03526466E-01 9.67220692E-01 0.00000000E+00 0.00000000E+00
 7  5 0.00000000E+00
 8  1 0.00000000E+00 0.00000000E+00 0.00000000E+00 0.00000000E+00 0.00000000E+00
 8  2 0.00000000E+00 0.00000000E+00 0.00000000E+00 0.00000000E+00 0.00000000E+00
 8  3 0.00000000E+00 0.00000000E+00 0.00000000E+00 0.00000000E+00 0.00000000E+00
 8  4 9.64606321E-01-7.10669060E-01-2.53937262E-01 0.00000000E+00 0.00000000E+00
 8  5 0.00000000E+00
 9  1 0.00000000E+00 0.00000000E+00 0.00000000E+00 0.00000000E+00 0.00000000E+00
 9  2 0.00000000E+00 0.00000000E+00 0.00000000E+00 0.00000000E+00 0.00000000E+00
 9  3 0.00000000E+00 0.00000000E+00 0.00000000E+00 0.00000000E+00 0.00000000E+00
 9  4 0.00000000E+00 0.00000000E+00 0.00000000E+00 0.00000000E+00 0.00000000E+00
 9  5 1.00000000E+00
10  1 0.00000000E+00 0.00000000E+00 0.00000000E+00 0.00000000E+00 0.00000000E+00
10  2 0.00000000E+00 0.00000000E+00 0.00000000E+00 0.00000000E+00 0.00000000E+00
10  3 0.00000000E+00 0.00000000E+00 0.00000000E+00 0.00000000E+00 0.00000000E+00
10  4 0.00000000E+00 0.00000000E+00 0.00000000E+00 1.00000000E+00 0.00000000E+00
10  5 0.00000000E+00
11  1 0.00000000E+00 0.00000000E+00 0.00000000E+00 0.00000000E+00 0.00000000E+00
11  2 0.00000000E+00 0.00000000E+00 0.00000000E+00 0.00000000E+00 0.00000000E+00
11  3 0.00000000E+00 0.00000000E+00 0.00000000E+00 0.00000000E+00 0.00000000E+00
11  4 0.00000000E+00 0.00000000E+00 0.00000000E+00 0.00000000E+00 1.00000000E+00
11  5 0.00000000E+00
12  1 0.00000000E+00 0.00000000E+00 0.00000000E+00 0.00000000E+00 0.00000000E+00
12  2 0.00000000E+00-3.38921972E-01 0.00000000E+00 0.00000000E+00 1.84677950E+00
12  3 0.00000000E+00 0.00000000E+00-1.16400274E+00 0.00000000E+00 0.00000000E+00
12  4 0.00000000E+00 0.00000000E+00 0.00000000E+00 0.00000000E+00 0.00000000E+00
12  5 0.00000000E+00
13  1 0.00000000E+00 0.00000000E+00 0.00000000E+00 0.00000000E+00 0.00000000E+00
13  2 0.00000000E+00 0.00000000E+00-3.38921972E-01 0.00000000E+00 0.00000000E+00
13  3 1.84677950E+00 0.00000000E+00 0.00000000E+00-1.16400274E+00 0.00000000E+00
13  4 0.00000000E+00 0.00000000E+00 0.00000000E+00 0.00000000E+00 0.00000000E+00
13  5 0.00000000E+00
14  1 0.00000000E+00 0.00000000E+00 0.00000000E+00 0.00000000E+00 0.00000000E+00
14  2 0.00000000E+00 0.00000000E+00 0.00000000E+00-3.38921972E-01 0.00000000E+00
14  3 0.00000000E+00 1.84677950E+00 0.00000000E+00 0.00000000E+00-1.16400274E+00
14  4 0.00000000E+00 0.00000000E+00 0.00000000E+00 0.00000000E+00 0.00000000E+00
14  5 0.00000000E+00
15  1-1.66986760E-02 9.85273310E-02-1.30359643E+00 2.23104264E+00 5.12880880E+00
15  2-1.58954981E+00 0.00000000E+00 0.00000000E+00 0.00000000E+00 0.00000000E+00
15  3 0.00000000E+00 0.00000000E+00 0.00000000E+00 0.00000000E+00 0.00000000E+00
15  4-2.44660463E+00-2.44660463E+00-2.44660463E+00 0.00000000E+00 0.00000000E+00
15  5 0.00000000E+00
16  1 0.00000000E+00 0.00000000E+00 0.00000000E+00 0.00000000E+00 0.00000000E+00
16  2 0.00000000E+00 0.00000000E+00 0.00000000E+00 1.75478546E+00 0.00000000E+00
16  3 0.00000000E+00-1.67728237E+00 0.00000000E+00 0.00000000E+00 6.12787964E-01
16  4 0.00000000E+00 0.00000000E+00 0.00000000E+00 0.00000000E+00 0.00000000E+00
16  5 0.00000000E+00
17  1 0.00000000E+00 0.00000000E+00 0.00000000E+00 0.00000000E+00 0.00000000E+00
17  2 0.00000000E+00 0.00000000E+00 1.75478546E+00 0.00000000E+00 0.00000000E+00
17  3-1.67728237E+00 0.00000000E+00 0.00000000E+00 6.12787964E-01 0.00000000E+00
17  4 0.00000000E+00 0.00000000E+00 0.00000000E+00 0.00000000E+00 0.00000000E+00
17  5 0.00000000E+00
18  1 0.00000000E+00 0.00000000E+00 0.00000000E+00 0.00000000E+00 0.00000000E+00
18  2 0.00000000E+00 1.75478546E+00 0.00000000E+00 0.00000000E+00-1.67728237E+00
18  3 0.00000000E+00 0.00000000E+00 6.12787964E-01 0.00000000E+00 0.00000000E+00
18  4 0.00000000E+00 0.00000000E+00 0.00000000E+00 0.00000000E+00 0.00000000E+00
18  5 0.00000000E+00
19  1-1.99347288E-02 7.10201574E-01-4.65081283E+00 6.66555489E+00 2.61888551E+00
19  2-8.09778926E-01 0.00000000E+00 0.00000000E+00 0.00000000E+00 0.00000000E+00
19  3 0.00000000E+00 0.00000000E+00 0.00000000E+00 0.00000000E+00 0.00000000E+00
19  4-2.87587802E+00-2.87587802E+00-2.87587802E+00 0.00000000E+00 0.00000000E+00
19  5 0.00000000E+00
20  1-2.08534925E-01 2.59301158E+00-4.36373987E+00 4.72734663E+00 1.26524678E+00
20  2-4.07752249E-01 0.00000000E+00 0.00000000E+00 0.00000000E+00 0.00000000E+00
20  3 0.00000000E+00 0.00000000E+00 0.00000000E+00 0.00000000E+00 0.00000000E+00
20  4-1.78964467E+00-1.78964467E+00-1.78964467E+00 0.00000000E+00 0.00000000E+00
20  5 0.00000000E+00
21  1-1.41658275E+00 1.66254589E+00-1.98369251E+00 2.01930109E+00 5.54767138E-01
21  2-1.81013708E-01 0.00000000E+00 0.00000000E+00 0.00000000E+00 0.00000000E+00
21  3 0.00000000E+00 0.00000000E+00 0.00000000E+00 0.00000000E+00 0.00000000E+00
21  4-7.65548220E-01-7.65548220E-01-7.65548220E-01 0.00000000E+00 0.00000000E+00
21  5 0.00000000E+00
 $END
