 8
  s 1
  1  4.9231  1.0
  s 1
  1  0.92126 1.0
  s 1
  1  0.32058 1.0
  s 1
  1  0.14169  1.0
  s 1
  1  0.061803  1.0
  s 1
  1  0.0267577 1.0
  p 1
  1  0.27492  1.0
  p 1
  1  0.084534  1.0

! note, the first part of this file is a basis set to be read,
! in other words, use this input file as POSBAS as well as INPUT.
!
! Example positron-NEO full CI calculation
! PsH 6s2p/6s2p basis
! SCF energy is -.6667830623
! M. Tachikawa, Chem. Phys. Let., 350:269-276 (2001)
! From Table 2, Total Energy = -0.7433360
!
! STATE=  1 ENERGY =        -0.7433359674
!
!    ALPHA     |    BETA      ||    ALPHA     |    BETA      | COEFFICIENT
!--------------|--------------||--------------|--------------|------------
! 100000000000 | 000000000000 || 100000000000 | 100000000000 |   0.9418235
! 100000000000 | 000000000000 || 010000000000 | 010000000000 |  -0.0705672
! 100000000000 | 000000000000 || 010000000000 | 000001000000 |   0.0502766
! 100000000000 | 000000000000 || 000001000000 | 010000000000 |   0.0502766
! 010000000000 | 000000000000 || 100000000000 | 100000000000 |  -0.0892174
! 001000000000 | 000000000000 || 100000000000 | 001000000000 |   0.0965463
! 001000000000 | 000000000000 || 001000000000 | 100000000000 |   0.0965463
! 000100000000 | 000000000000 || 100000000000 | 000100000000 |   0.0982895
! 000100000000 | 000000000000 || 000100000000 | 100000000000 |   0.0982895
! 000010000000 | 000000000000 || 100000000000 | 000010000000 |  -0.0964853
! 000010000000 | 000000000000 || 000010000000 | 100000000000 |  -0.0964853
!
! STATE=  2 ENERGY =        -0.5958071570
!
!    ALPHA     |    BETA      ||    ALPHA     |    BETA      | COEFFICIENT
!--------------|--------------||--------------|--------------|------------
! 100000000000 | 000000000000 || 100000000000 | 001000000000 |   0.1364731
! 100000000000 | 000000000000 || 100000000000 | 000010000000 |  -0.1706608
! 100000000000 | 000000000000 || 001000000000 | 100000000000 |   0.1364731
! 100000000000 | 000000000000 || 000010000000 | 100000000000 |  -0.1706608
! 001000000000 | 000000000000 || 100000000000 | 100000000000 |   0.4301493
! 000010000000 | 000000000000 || 100000000000 | 100000000000 |   0.8215058
! 000010000000 | 000000000000 || 010000000000 | 010000000000 |  -0.0748984
!
 $CONTRL SCFTYP=RHF RUNTYP=ENERGY MAXIT=200
         ICHARG=0 MULT=1 cityp=aldet $END 
 $SYSTEM TIMLIM=3000 MWORDS=100 $END 
 $scf    dirscf=.f. soscf=.f. diis=.t. ethrsh=1.5  $end
 $NEO    NEOSCF=RONHF NEOCI=FCI basnuc=readin
         nucst=1 dirnuc=.f.
         numult=2 symnuc=.f.
         DIRNUC=.f.
         NUNIQN=1 IUNIQN(1)=2 IUNIQT(1)=1 
         posneo=.t. posprp=.t.
         $END 
 $CIDET  GROUP=C1 ISTSYM=1 NCORE=0 NACT=12
         NELS=2 NSTATE=2 $END 
 $NEODET NACT=12 NUCLEI=1 SZ=0.5 NSTATE=2 IROOT=1 
         NFLGDM(1)=2,0  $END
 $GUESS  GUESS=MOREAD NORB=12 $END 
 $GESNMO GUESS=MOREAD NORB=12 $END 
 $DATA  
                                                                                
C1
H           1.0      0.0000000000      0.0000000000      0.0000000000
   S       1
     1        35.6412 1.00000000
   S       1
     1         5.42021 1.00000000
   S       1
     1         1.28549 1.00000000
   S       1
     1         0.382633 1.00000000
   S       1
     1         0.12944 1.00000000
   S       1
     1         0.0488421 1.00000000
   P       1
     1         0.38692 1.00000000
   P       1
     1         0.095427 1.00000000
        
H           1.0      0.0000000000      0.0000000000      0.0000000000
        
 $END      
--- OPTIMIZED MCSCF MO-S --- GENERATED AT Mon Oct 31 11:32:07 2005

E(MCSCF)=       -0.7433359647
 $VEC   
 1  1 4.33266477E-03 3.09229878E-02 1.19920572E-01 4.31999817E-01 2.67060543E-01
 1  2 3.12783596E-01 0.00000000E+00 0.00000000E+00 0.00000000E+00 0.00000000E+00
 1  3 0.00000000E+00 0.00000000E+00
 2  1-3.22690431E-03-7.93825696E-03-1.38388076E-01-1.72884408E+00 1.89261299E-01
 2  2 1.89776821E+00 0.00000000E+00 0.00000000E+00 0.00000000E+00 0.00000000E+00
 2  3 0.00000000E+00 0.00000000E+00
 3  1 0.00000000E+00 0.00000000E+00 0.00000000E+00 0.00000000E+00 0.00000000E+00
 3  2 0.00000000E+00 0.00000000E+00 0.00000000E+00-9.04313912E-02 0.00000000E+00
 3  3 0.00000000E+00 1.04845610E+00
 4  1 0.00000000E+00 0.00000000E+00 0.00000000E+00 0.00000000E+00 0.00000000E+00
 4  2 0.00000000E+00-9.04313912E-02 0.00000000E+00 0.00000000E+00 1.04845610E+00
 4  3 0.00000000E+00 0.00000000E+00
 5  1 0.00000000E+00 0.00000000E+00 0.00000000E+00 0.00000000E+00 0.00000000E+00
 5  2 0.00000000E+00 0.00000000E+00-9.04313912E-02 0.00000000E+00 0.00000000E+00
 5  3 1.04845610E+00 0.00000000E+00
 6  1-2.36123073E-03-7.61820871E-02 1.15542991E-01 2.96163085E+00-2.11826702E+00
 6  2-1.25640489E+00 0.00000000E+00 0.00000000E+00 0.00000000E+00 0.00000000E+00
 6  3 0.00000000E+00 0.00000000E+00
 7  1 0.00000000E+00 0.00000000E+00 0.00000000E+00 0.00000000E+00 0.00000000E+00
 7  2 0.00000000E+00 0.00000000E+00 0.00000000E+00 1.21020481E+00 0.00000000E+00
 7  3 0.00000000E+00-6.11157356E-01
 8  1 0.00000000E+00 0.00000000E+00 0.00000000E+00 0.00000000E+00 0.00000000E+00
 8  2 0.00000000E+00 1.21020481E+00 0.00000000E+00 0.00000000E+00-6.11157356E-01
 8  3 0.00000000E+00 0.00000000E+00
 9  1 0.00000000E+00 0.00000000E+00 0.00000000E+00 0.00000000E+00 0.00000000E+00
 9  2 0.00000000E+00 0.00000000E+00 1.21020481E+00 0.00000000E+00 0.00000000E+00
 9  3-6.11157356E-01 0.00000000E+00
10  1-2.25116341E-02 6.88450758E-02-1.97649309E+00-1.83370059E+00 2.76938037E+00
10  2 6.30685501E-01 0.00000000E+00 0.00000000E+00 0.00000000E+00 0.00000000E+00
10  3 0.00000000E+00 0.00000000E+00
11  1 3.84366500E-02-1.63223234E+00 1.98235530E+00 8.31060865E-01-1.45243485E+00
11  2-2.84681637E-01 0.00000000E+00 0.00000000E+00 0.00000000E+00 0.00000000E+00
11  3 0.00000000E+00 0.00000000E+00
12  1 1.27528866E+00-1.09686683E+00 7.60073441E-01 2.98850364E-01-5.14372177E-01
12  2-1.04190118E-01 0.00000000E+00 0.00000000E+00 0.00000000E+00 0.00000000E+00
12  3 0.00000000E+00 0.00000000E+00
 $END   
 $VECPRO
 1  1 4.43743806E-03 2.71596296E-02 5.81537602E-02-1.07446110E-01-5.15169012E-01
 1  2-4.68373984E-01 0.00000000E+00 0.00000000E+00 0.00000000E+00 0.00000000E+00
 1  3 0.00000000E+00 0.00000000E+00
 2  1 1.45972534E-03-8.25835066E-02 3.40615792E-01-1.16659803E+00 3.30556199E+00
 2  2-2.56461807E+00 0.00000000E+00 0.00000000E+00 0.00000000E+00 0.00000000E+00
 2  3 0.00000000E+00 0.00000000E+00
 3  1 0.00000000E+00 0.00000000E+00 0.00000000E+00 0.00000000E+00 0.00000000E+00
 3  2 0.00000000E+00-3.60552451E-02-9.84052302E-03-1.41222729E-01 2.69222644E-01
 3  3 7.34786747E-02 1.05450280E+00
 4  1 0.00000000E+00 0.00000000E+00 0.00000000E+00 0.00000000E+00 0.00000000E+00
 4  2 0.00000000E+00-6.65878407E-03-1.45451928E-01 1.18352558E-02 4.97207952E-02
 4  3 1.08608200E+00-8.83732411E-02
 5  1 0.00000000E+00 0.00000000E+00 0.00000000E+00 0.00000000E+00 0.00000000E+00
 5  2 0.00000000E+00 1.41408472E-01-9.35824730E-03-3.54505756E-02-1.05588972E+00
 5  3 6.98775470E-02 2.64707608E-01
 6  1-2.24977360E-02 1.44876756E-01-1.44023430E+00 4.98249833E+00-5.10269694E+00
 6  2 1.84510071E+00 0.00000000E+00 0.00000000E+00 0.00000000E+00 0.00000000E+00
 6  3 0.00000000E+00 0.00000000E+00
 7  1 0.00000000E+00 0.00000000E+00 0.00000000E+00 0.00000000E+00 0.00000000E+00
 7  2 0.00000000E+00 1.30676123E+00 1.16539050E-01 2.01141639E-01-7.58257136E-01
 7  3-6.76225805E-02-1.16713811E-01
 8  1 0.00000000E+00 0.00000000E+00 0.00000000E+00 0.00000000E+00 0.00000000E+00
 8  2 0.00000000E+00-2.26477551E-02-1.07915378E+00 7.72384902E-01 1.31415146E-02
 8  3 6.26186354E-01-4.48181618E-01
 9  1 0.00000000E+00 0.00000000E+00 0.00000000E+00 0.00000000E+00 0.00000000E+00
 9  2 0.00000000E+00-2.31357706E-01 7.63878267E-01 1.06048472E+00 1.34246890E-01
 9  3-4.43245585E-01-6.15353505E-01
10  1 2.21445527E-02-8.25324546E-01 4.65304738E+00-6.06876427E+00 3.66237476E+00
10  2-1.06197299E+00 0.00000000E+00 0.00000000E+00 0.00000000E+00 0.00000000E+00
10  3 0.00000000E+00 0.00000000E+00
11  1-2.46457272E-01 2.77169454E+00-4.42551395E+00 3.89562395E+00-2.02589667E+00
11  2 5.70983064E-01 0.00000000E+00 0.00000000E+00 0.00000000E+00 0.00000000E+00
11  3 0.00000000E+00 0.00000000E+00
12  1 1.45723237E+00-1.79372283E+00 2.06436501E+00-1.71129912E+00 8.94839194E-01
12  2-2.57178188E-01 0.00000000E+00 0.00000000E+00 0.00000000E+00 0.00000000E+00
12  3 0.00000000E+00 0.00000000E+00
 $END   
